Generated by VASPKIT code               
   1.00000000000000     
    11.5982000000000003    0.0000000000000000    0.0000000000000000
    -5.7990999999999975   10.0443358381726764    0.0000000000000000
     0.0000000000000000    0.0000000000000000   21.0482000000000014
  Ce              O             
    27    63
Direct
  0.0012378111259940  0.9987621888740060  0.4575137083429887
  0.2264480926689610  0.1082400455125860  0.3106968232033216
  0.1267672432977993  0.2232795813727192  0.1636305937581118
  0.3351448883585517  0.9982585038023064  0.4591680901409416
  0.5603734819062544  0.1103572830686488  0.3094000164088990
  0.4480287327181735  0.2234443184079005  0.1582558704280275
  0.6690488089796254  0.9990576939812049  0.4580471551866531
  0.8904326433343226  0.1095673566656705  0.3064756895068407
  0.7738544385828834  0.2261455614171167  0.1435052518634783
  0.0009423060187955  0.3309511910203749  0.4580471551866531
  0.2261871854242448  0.4430176423785559  0.3108785222129448
  0.1098517523151766  0.5515614072979717  0.1633417293629497
  0.3353957931987016  0.3316532060598590  0.4586480798972741
  0.5582569399214534  0.4417430600785463  0.3100118227100555
  0.4509727228691118  0.5490272771308879  0.1613118835455140
  0.6686083260534650  0.3313916739465352  0.4583487822030659
  0.8896427169313443  0.4396265180937452  0.3094000164088990
  0.7765556815921001  0.5519712672818270  0.1582558704280275
  0.0017414961976933  0.6648551116414482  0.4591680901409416
  0.2244104041731367  0.7755895958268634  0.3109650420264656
  0.1118747173174854  0.8881252826825142  0.1588824629927114
  0.3345771931897517  0.6654228068102482  0.4593693923074388
  0.5569823576214445  0.7738128145757552  0.3108785222129448
  0.4484385927020288  0.8901482476848235  0.1633417293629497
  0.6683467939401336  0.6646042068012975  0.4586480798972741
  0.8917599544874073  0.7735519073310393  0.3106968232033216
  0.7767204186272804  0.8732327567022007  0.1636305937581118
  0.9947009079555463  0.0052990920444536  0.1154422804776374
  0.1182181225978156  0.2211712444415320  0.2709020878318958
  0.2238947102499141  0.1095711462119248  0.4205210228602769
  0.0419484779415061  0.3801357055067933  0.0450303994698677
  0.1111200252673930  0.2202180551486143  0.4937535912430512
  0.0031970066116783  0.9968029933883213  0.3464020079897209
  0.2212183319934626  0.1027328743318579  0.1958118812604691
  0.3332344817798737  0.9880135574456697  0.1140470678912416
  0.4472439025421432  0.2187241193262365  0.2723129767231375
  0.5580356981552420  0.1096193587455357  0.4206402262949530
  0.4157550150061115  0.0925065997227227  0.0725102701735321
  0.4454534632821405  0.2207252233247551  0.4946037018964644
  0.3347236599158515  0.9969107313188790  0.3483647039587048
  0.5544587616102843  0.0985564923848017  0.1959061742322533
  0.6771015000790869  0.9887098058081648  0.1140072874026634
  0.7799377751118228  0.2200622248881771  0.2757975985494022
  0.8905955068661500  0.1094044931338431  0.4190189800711605
  0.7637637821034254  0.2362362178965740  0.0567374730225622
  0.7800589838148462  0.2199410161851537  0.4946974857613431
  0.6675433596109225  0.9952114567259704  0.3469100126180871
  0.8968397147251095  0.1031602852748835  0.1954209497061911
  0.0112901941918355  0.3228984999209127  0.1140072874026634
  0.1160658131482873  0.5572536665336694  0.2722235319203536
  0.2243340910025340  0.4431397902414981  0.4209339696882162
  0.1394120255959300  0.5022945971523697  0.0456572824945197
  0.1126966906537216  0.5540303247443145  0.4944023542531040
  0.0047885432740292  0.3324566403890776  0.3469100126180871
  0.2192161708047821  0.4422328305368855  0.1974195485749906
  0.3326357191916190  0.3318389750131366  0.1263579539348108
  0.4466539476098542  0.5533460523901458  0.2731695252338784
  0.5575506864047975  0.4424493135952019  0.4210437053124906
  0.3794393927402283  0.6205606072597719  0.0702969056500974
  0.4460706018214819  0.5539293981785183  0.4949987136589172
  0.3358714078350227  0.3312134977812708  0.3484010289527897
  0.5532258238567850  0.4467741761432148  0.2009847910999398
  0.6561647118225706  0.3438352881774290  0.1320560536509788
  0.7812758806737635  0.5527560974578566  0.2723129767231375
  0.8903806412544573  0.4419643018447577  0.4206402262949530
  0.9074934002772771  0.5842449849938885  0.0725102701735321
  0.7792747766752451  0.5545465367178593  0.4946037018964644
  0.6685665533312655  0.3314334466687348  0.3479102568691169
  0.9014435076151905  0.4455412383897164  0.1959061742322533
  0.0119864425543302  0.6667655182201268  0.1140470678912416
  0.1154981419725137  0.8845018580274857  0.2724085650348075
  0.2241353656103035  0.7758646343896964  0.4209923897205175
  0.0486624082847643  0.9513375917152356  0.0709993538612624
  0.1119703124590960  0.8880296875409039  0.4945405220381153
  0.0030892686811209  0.6652763400841486  0.3483647039587048
  0.2253781959003100  0.7746218040996904  0.1917548801293927
  0.3339403923352183  0.6660596076647818  0.1197086805685697
  0.4427463334663312  0.8839341868517127  0.2722235319203536
  0.5568602097585021  0.7756659089974663  0.4209339696882162
  0.4977054028476301  0.8605879744040699  0.0456572824945197
  0.4459696752556855  0.8873033093462779  0.4944023542531040
  0.3356669192918173  0.6643330807081833  0.3480169375463378
  0.5577671694631144  0.7807838291952176  0.1974195485749906
  0.6681610249868558  0.6673642808083807  0.1263579539348108
  0.7788287555584679  0.8817818774021843  0.2709020878318958
  0.8904288537880682  0.7761052897500863  0.4205210228602769
  0.6198642944932071  0.9580515220584936  0.0450303994698677
  0.7797819448513855  0.8888799747326068  0.4937535912430512
  0.6687865022187224  0.6641285921649773  0.3484010289527897
  0.8972671256681354  0.7787816680065379  0.1958118812604691
 
  0.00000000E+00  0.00000000E+00  0.00000000E+00
  0.00000000E+00  0.00000000E+00  0.00000000E+00
  0.00000000E+00  0.00000000E+00  0.00000000E+00
  0.00000000E+00  0.00000000E+00  0.00000000E+00
  0.00000000E+00  0.00000000E+00  0.00000000E+00
  0.00000000E+00  0.00000000E+00  0.00000000E+00
  0.00000000E+00  0.00000000E+00  0.00000000E+00
  0.00000000E+00  0.00000000E+00  0.00000000E+00
  0.00000000E+00  0.00000000E+00  0.00000000E+00
  0.00000000E+00  0.00000000E+00  0.00000000E+00
  0.00000000E+00  0.00000000E+00  0.00000000E+00
  0.00000000E+00  0.00000000E+00  0.00000000E+00
  0.00000000E+00  0.00000000E+00  0.00000000E+00
  0.00000000E+00  0.00000000E+00  0.00000000E+00
  0.00000000E+00  0.00000000E+00  0.00000000E+00
  0.00000000E+00  0.00000000E+00  0.00000000E+00
  0.00000000E+00  0.00000000E+00  0.00000000E+00
  0.00000000E+00  0.00000000E+00  0.00000000E+00
  0.00000000E+00  0.00000000E+00  0.00000000E+00
  0.00000000E+00  0.00000000E+00  0.00000000E+00
  0.00000000E+00  0.00000000E+00  0.00000000E+00
  0.00000000E+00  0.00000000E+00  0.00000000E+00
  0.00000000E+00  0.00000000E+00  0.00000000E+00
  0.00000000E+00  0.00000000E+00  0.00000000E+00
  0.00000000E+00  0.00000000E+00  0.00000000E+00
  0.00000000E+00  0.00000000E+00  0.00000000E+00
  0.00000000E+00  0.00000000E+00  0.00000000E+00
  0.00000000E+00  0.00000000E+00  0.00000000E+00
  0.00000000E+00  0.00000000E+00  0.00000000E+00
  0.00000000E+00  0.00000000E+00  0.00000000E+00
  0.00000000E+00  0.00000000E+00  0.00000000E+00
  0.00000000E+00  0.00000000E+00  0.00000000E+00
  0.00000000E+00  0.00000000E+00  0.00000000E+00
  0.00000000E+00  0.00000000E+00  0.00000000E+00
  0.00000000E+00  0.00000000E+00  0.00000000E+00
  0.00000000E+00  0.00000000E+00  0.00000000E+00
  0.00000000E+00  0.00000000E+00  0.00000000E+00
  0.00000000E+00  0.00000000E+00  0.00000000E+00
  0.00000000E+00  0.00000000E+00  0.00000000E+00
  0.00000000E+00  0.00000000E+00  0.00000000E+00
  0.00000000E+00  0.00000000E+00  0.00000000E+00
  0.00000000E+00  0.00000000E+00  0.00000000E+00
  0.00000000E+00  0.00000000E+00  0.00000000E+00
  0.00000000E+00  0.00000000E+00  0.00000000E+00
  0.00000000E+00  0.00000000E+00  0.00000000E+00
  0.00000000E+00  0.00000000E+00  0.00000000E+00
  0.00000000E+00  0.00000000E+00  0.00000000E+00
  0.00000000E+00  0.00000000E+00  0.00000000E+00
  0.00000000E+00  0.00000000E+00  0.00000000E+00
  0.00000000E+00  0.00000000E+00  0.00000000E+00
  0.00000000E+00  0.00000000E+00  0.00000000E+00
  0.00000000E+00  0.00000000E+00  0.00000000E+00
  0.00000000E+00  0.00000000E+00  0.00000000E+00
  0.00000000E+00  0.00000000E+00  0.00000000E+00
  0.00000000E+00  0.00000000E+00  0.00000000E+00
  0.00000000E+00  0.00000000E+00  0.00000000E+00
  0.00000000E+00  0.00000000E+00  0.00000000E+00
  0.00000000E+00  0.00000000E+00  0.00000000E+00
  0.00000000E+00  0.00000000E+00  0.00000000E+00
  0.00000000E+00  0.00000000E+00  0.00000000E+00
  0.00000000E+00  0.00000000E+00  0.00000000E+00
  0.00000000E+00  0.00000000E+00  0.00000000E+00
  0.00000000E+00  0.00000000E+00  0.00000000E+00
  0.00000000E+00  0.00000000E+00  0.00000000E+00
  0.00000000E+00  0.00000000E+00  0.00000000E+00
  0.00000000E+00  0.00000000E+00  0.00000000E+00
  0.00000000E+00  0.00000000E+00  0.00000000E+00
  0.00000000E+00  0.00000000E+00  0.00000000E+00
  0.00000000E+00  0.00000000E+00  0.00000000E+00
  0.00000000E+00  0.00000000E+00  0.00000000E+00
  0.00000000E+00  0.00000000E+00  0.00000000E+00
  0.00000000E+00  0.00000000E+00  0.00000000E+00
  0.00000000E+00  0.00000000E+00  0.00000000E+00
  0.00000000E+00  0.00000000E+00  0.00000000E+00
  0.00000000E+00  0.00000000E+00  0.00000000E+00
  0.00000000E+00  0.00000000E+00  0.00000000E+00
  0.00000000E+00  0.00000000E+00  0.00000000E+00
  0.00000000E+00  0.00000000E+00  0.00000000E+00
  0.00000000E+00  0.00000000E+00  0.00000000E+00
  0.00000000E+00  0.00000000E+00  0.00000000E+00
  0.00000000E+00  0.00000000E+00  0.00000000E+00
  0.00000000E+00  0.00000000E+00  0.00000000E+00
  0.00000000E+00  0.00000000E+00  0.00000000E+00
  0.00000000E+00  0.00000000E+00  0.00000000E+00
  0.00000000E+00  0.00000000E+00  0.00000000E+00
  0.00000000E+00  0.00000000E+00  0.00000000E+00
  0.00000000E+00  0.00000000E+00  0.00000000E+00
  0.00000000E+00  0.00000000E+00  0.00000000E+00
  0.00000000E+00  0.00000000E+00  0.00000000E+00
  0.00000000E+00  0.00000000E+00  0.00000000E+00
