Generated by VASPKIT code               
   1.00000000000000     
    11.5982000000000003    0.0000000000000000    0.0000000000000000
    -5.7990999999999975   10.0443358381726764    0.0000000000000000
     0.0000000000000000    0.0000000000000000   21.0482000000000014
  Ce              O             
    27    63
Selective dynamics
Direct
  0.9999997798480306  0.0000002201519695  0.4631934825557398   T   T   T
  0.2222213979714728  0.1111101812743998  0.3124461996774099   T   T   T
  0.1111099999999965  0.2222200000000001  0.1599900000000005   F   F   F
  0.3333345184759499  0.0000003101402516  0.4631932785908871   T   T   T
  0.5555559799041071  0.1111107508171717  0.3124451163211754   T   T   T
  0.4444400000000002  0.2222200000000001  0.1599900000000005   F   F   F
  0.6666666704708906  0.0000003232185023  0.4631931265566789   T   T   T
  0.8888889750423827  0.1111110249576103  0.3124463406466050   T   T   T
  0.7777799999999999  0.2222200000000001  0.1599900000000005   F   F   F
  0.9999996767814975  0.3333333295291097  0.4631931265566789   T   T   T
  0.2222216623158026  0.4444431428324783  0.3124449511090062   T   T   T
  0.1111099999999965  0.5555599999999998  0.1599900000000005   F   F   F
  0.3333344364894289  0.3333334144541138  0.4631929251296466   T   T   T
  0.5555562762799513  0.4444437237200487  0.3124438500300583   T   T   T
  0.4444400000000002  0.5555599999999998  0.1599900000000005   F   F   F
  0.6666666109876728  0.3333333890123273  0.4631927448821542   T   T   T
  0.8888892491828210  0.4444440200958930  0.3124451163211754   T   T   T
  0.7777799999999999  0.5555599999999998  0.1599900000000005   F   F   F
  0.9999996898597486  0.6666654815240504  0.4631932785908871   T   T   T
  0.2222222619660590  0.7777777380339412  0.3124460135089086   T   T   T
  0.1111099999999965  0.8888900000000035  0.1599900000000005   F   F   F
  0.3333344303211495  0.6666655696788504  0.4631930471912211   T   T   T
  0.5555568571675218  0.7777783376841974  0.3124449511090062   T   T   T
  0.4444400000000002  0.8888900000000035  0.1599900000000005   F   F   F
  0.6666665855458791  0.6666655635105713  0.4631929251296466   T   T   T
  0.8888898187255933  0.7777786020285271  0.3124461996774099   T   T   T
  0.7777799999999999  0.8888900000000035  0.1599900000000005   F   F   F
  0.0000000000000000  0.0000000000000000  0.1225000000000023   F   F   F
  0.1111098097775699  0.2222202319744786  0.2742151960689252   T   T   T
  0.2222241265575599  0.1111122385148965  0.4244651085367473   T   T   T
  0.1111099999999965  0.2222200000000001  0.0475100000000026   F   F   F
  0.1111109635281042  0.2222221900263742  0.5003628678016839   T   T   T
  0.0000003389989608  0.9999996610010387  0.3510129830791273   T   T   T
  0.2222200000000001  0.1111099999999965  0.1974799999999988   F   F   F
  0.3333299999999966  0.0000000000000000  0.1225000000000023   F   F   F
  0.4444421397651527  0.2222187655514227  0.2742135498690152   T   T   T
  0.5555555247287510  0.1111118546983108  0.4244645884443058   T   T   T
  0.4444400000000002  0.2222200000000001  0.0475100000000026   F   F   F
  0.4444450448620240  0.2222230806438754  0.5003636653924829   T   T   T
  0.3333330298671906  0.9999984510554503  0.3510117963659562   T   T   T
  0.5555599999999998  0.1111099999999965  0.1974799999999988   F   F   F
  0.6666700000000034  0.0000000000000000  0.1225000000000023   F   F   F
  0.7777788171025221  0.2222211828974779  0.2742154136395307   T   T   T
  0.8888881055840199  0.1111118944159729  0.4244649735817103   T   T   T
  0.7777799999999999  0.2222200000000001  0.0475100000000026   F   F   F
  0.7777771207400398  0.2222228792599603  0.5003631163144754   T   T   T
  0.6666649214163549  0.9999982432982646  0.3510115062689739   T   T   T
  0.8888899999999964  0.1111099999999965  0.1974799999999988   F   F   F
  0.0000000000000000  0.3333299999999966  0.1225000000000023   F   F   F
  0.1111122164226547  0.5555568967917549  0.2742133310994262   T   T   T
  0.2222241587360115  0.4444448387291499  0.4244647281312683   T   T   T
  0.1111099999999965  0.5555599999999998  0.0475100000000026   F   F   F
  0.1111107989548458  0.5555542752712783  0.5003634192184002   T   T   T
  0.0000017567017354  0.3333350785836451  0.3510115062689739   T   T   T
  0.2222200000000001  0.4444400000000002  0.1974799999999988   F   F   F
  0.3333299999999966  0.3333299999999966  0.1225000000000023   F   F   F
  0.4444445605931840  0.5555554394068160  0.2742116747690758   T   T   T
  0.5555555471801055  0.4444444528198944  0.4244642031139955   T   T   T
  0.4444400000000002  0.5555599999999998  0.0475100000000026   F   F   F
  0.4444448776758982  0.5555551223241019  0.5003642265827365   T   T   T
  0.3333344407980798  0.3333338761498590  0.3510103170746324   T   T   T
  0.5555599999999998  0.4444400000000002  0.1974799999999988   F   F   F
  0.6666700000000034  0.3333299999999966  0.1225000000000023   F   F   F
  0.7777812344485773  0.5555578602348473  0.2742135498690152   T   T   T
  0.8888881453016819  0.4444444752712490  0.4244645884443058   T   T   T
  0.7777799999999999  0.5555599999999998  0.0475100000000026   F   F   F
  0.7777769193561247  0.5555549551379763  0.5003636653924829   T   T   T
  0.6666663380912581  0.3333336619087419  0.3510100202730999   T   T   T
  0.8888899999999964  0.4444400000000002  0.1974799999999988   F   F   F
  0.0000000000000000  0.6666700000000034  0.1225000000000023   F   F   F
  0.1111107614334061  0.8888892385665941  0.2742149846407135   T   T   T
  0.2222237845027829  0.7777762154972171  0.4244652435189167   T   T   T
  0.1111099999999965  0.8888900000000035  0.0475100000000026   F   F   F
  0.1111116758049708  0.8888883241950292  0.5003626201793325   T   T   T
  0.0000015489445500  0.6666669701328090  0.3510117963659562   T   T   T
  0.2222200000000001  0.7777799999999999  0.1974799999999988   F   F   F
  0.3333299999999966  0.6666700000000034  0.1225000000000023   F   F   F
  0.4444431032082448  0.8888877835773454  0.2742133310994262   T   T   T
  0.5555551612708498  0.7777758412639886  0.4244647281312683   T   T   T
  0.4444400000000002  0.8888900000000035  0.0475100000000026   F   F   F
  0.4444457247287217  0.8888892010451542  0.5003634192184002   T   T   T
  0.3333342263342768  0.6666657736657232  0.3510106005992129   T   T   T
  0.5555599999999998  0.7777799999999999  0.1974799999999988   F   F   F
  0.6666699999999963  0.6666700000000034  0.1225000000000023   F   F   F
  0.7777797680255214  0.8888901902224300  0.2742151960689252   T   T   T
  0.8888877614850964  0.7777758734424401  0.4244651085367473   T   T   T
  0.7777799999999999  0.8888900000000035  0.0475100000000026   F   F   F
  0.7777778099736256  0.8888890364718957  0.5003628678016839   T   T   T
  0.6666661238501337  0.6666655592019201  0.3510103170746324   T   T   T
  0.8888899999999964  0.7777799999999999  0.1974799999999988   F   F   F
 
  0.00000000E+00  0.00000000E+00  0.00000000E+00
  0.00000000E+00  0.00000000E+00  0.00000000E+00
  0.00000000E+00  0.00000000E+00  0.00000000E+00
  0.00000000E+00  0.00000000E+00  0.00000000E+00
  0.00000000E+00  0.00000000E+00  0.00000000E+00
  0.00000000E+00  0.00000000E+00  0.00000000E+00
  0.00000000E+00  0.00000000E+00  0.00000000E+00
  0.00000000E+00  0.00000000E+00  0.00000000E+00
  0.00000000E+00  0.00000000E+00  0.00000000E+00
  0.00000000E+00  0.00000000E+00  0.00000000E+00
  0.00000000E+00  0.00000000E+00  0.00000000E+00
  0.00000000E+00  0.00000000E+00  0.00000000E+00
  0.00000000E+00  0.00000000E+00  0.00000000E+00
  0.00000000E+00  0.00000000E+00  0.00000000E+00
  0.00000000E+00  0.00000000E+00  0.00000000E+00
  0.00000000E+00  0.00000000E+00  0.00000000E+00
  0.00000000E+00  0.00000000E+00  0.00000000E+00
  0.00000000E+00  0.00000000E+00  0.00000000E+00
  0.00000000E+00  0.00000000E+00  0.00000000E+00
  0.00000000E+00  0.00000000E+00  0.00000000E+00
  0.00000000E+00  0.00000000E+00  0.00000000E+00
  0.00000000E+00  0.00000000E+00  0.00000000E+00
  0.00000000E+00  0.00000000E+00  0.00000000E+00
  0.00000000E+00  0.00000000E+00  0.00000000E+00
  0.00000000E+00  0.00000000E+00  0.00000000E+00
  0.00000000E+00  0.00000000E+00  0.00000000E+00
  0.00000000E+00  0.00000000E+00  0.00000000E+00
  0.00000000E+00  0.00000000E+00  0.00000000E+00
  0.00000000E+00  0.00000000E+00  0.00000000E+00
  0.00000000E+00  0.00000000E+00  0.00000000E+00
  0.00000000E+00  0.00000000E+00  0.00000000E+00
  0.00000000E+00  0.00000000E+00  0.00000000E+00
  0.00000000E+00  0.00000000E+00  0.00000000E+00
  0.00000000E+00  0.00000000E+00  0.00000000E+00
  0.00000000E+00  0.00000000E+00  0.00000000E+00
  0.00000000E+00  0.00000000E+00  0.00000000E+00
  0.00000000E+00  0.00000000E+00  0.00000000E+00
  0.00000000E+00  0.00000000E+00  0.00000000E+00
  0.00000000E+00  0.00000000E+00  0.00000000E+00
  0.00000000E+00  0.00000000E+00  0.00000000E+00
  0.00000000E+00  0.00000000E+00  0.00000000E+00
  0.00000000E+00  0.00000000E+00  0.00000000E+00
  0.00000000E+00  0.00000000E+00  0.00000000E+00
  0.00000000E+00  0.00000000E+00  0.00000000E+00
  0.00000000E+00  0.00000000E+00  0.00000000E+00
  0.00000000E+00  0.00000000E+00  0.00000000E+00
  0.00000000E+00  0.00000000E+00  0.00000000E+00
  0.00000000E+00  0.00000000E+00  0.00000000E+00
  0.00000000E+00  0.00000000E+00  0.00000000E+00
  0.00000000E+00  0.00000000E+00  0.00000000E+00
  0.00000000E+00  0.00000000E+00  0.00000000E+00
  0.00000000E+00  0.00000000E+00  0.00000000E+00
  0.00000000E+00  0.00000000E+00  0.00000000E+00
  0.00000000E+00  0.00000000E+00  0.00000000E+00
  0.00000000E+00  0.00000000E+00  0.00000000E+00
  0.00000000E+00  0.00000000E+00  0.00000000E+00
  0.00000000E+00  0.00000000E+00  0.00000000E+00
  0.00000000E+00  0.00000000E+00  0.00000000E+00
  0.00000000E+00  0.00000000E+00  0.00000000E+00
  0.00000000E+00  0.00000000E+00  0.00000000E+00
  0.00000000E+00  0.00000000E+00  0.00000000E+00
  0.00000000E+00  0.00000000E+00  0.00000000E+00
  0.00000000E+00  0.00000000E+00  0.00000000E+00
  0.00000000E+00  0.00000000E+00  0.00000000E+00
  0.00000000E+00  0.00000000E+00  0.00000000E+00
  0.00000000E+00  0.00000000E+00  0.00000000E+00
  0.00000000E+00  0.00000000E+00  0.00000000E+00
  0.00000000E+00  0.00000000E+00  0.00000000E+00
  0.00000000E+00  0.00000000E+00  0.00000000E+00
  0.00000000E+00  0.00000000E+00  0.00000000E+00
  0.00000000E+00  0.00000000E+00  0.00000000E+00
  0.00000000E+00  0.00000000E+00  0.00000000E+00
  0.00000000E+00  0.00000000E+00  0.00000000E+00
  0.00000000E+00  0.00000000E+00  0.00000000E+00
  0.00000000E+00  0.00000000E+00  0.00000000E+00
  0.00000000E+00  0.00000000E+00  0.00000000E+00
  0.00000000E+00  0.00000000E+00  0.00000000E+00
  0.00000000E+00  0.00000000E+00  0.00000000E+00
  0.00000000E+00  0.00000000E+00  0.00000000E+00
  0.00000000E+00  0.00000000E+00  0.00000000E+00
  0.00000000E+00  0.00000000E+00  0.00000000E+00
  0.00000000E+00  0.00000000E+00  0.00000000E+00
  0.00000000E+00  0.00000000E+00  0.00000000E+00
  0.00000000E+00  0.00000000E+00  0.00000000E+00
  0.00000000E+00  0.00000000E+00  0.00000000E+00
  0.00000000E+00  0.00000000E+00  0.00000000E+00
  0.00000000E+00  0.00000000E+00  0.00000000E+00
  0.00000000E+00  0.00000000E+00  0.00000000E+00
  0.00000000E+00  0.00000000E+00  0.00000000E+00
  0.00000000E+00  0.00000000E+00  0.00000000E+00
