Generated by VASPKIT code
 1.000000
   11.5982000000000003    0.0000000000000000    0.0000000000000000
   -5.7990999999999975   10.0443358381726764    0.0000000000000000
    0.0000000000000000    0.0000000000000000   21.0482000000000014
   Ce   O 
    27    63
Direct
    0.0000000000000000    0.0000000000000000    0.4599299999999999    Ce001
    0.2222200000000000    0.1111100000000000    0.3099600000000000    Ce002
    0.1111100000000000    0.2222200000000000    0.1599900000000000    Ce003
    0.3333300000000000    0.0000000000000000    0.4599299999999999    Ce004
    0.5555600000000001    0.1111100000000000    0.3099600000000000    Ce005
    0.4444400000000000    0.2222200000000000    0.1599900000000000    Ce006
    0.6666700000000000    0.0000000000000000    0.4599299999999999    Ce007
    0.8888899999999997    0.1111100000000000    0.3099600000000000    Ce008
    0.7777799999999999    0.2222200000000000    0.1599900000000000    Ce009
    0.0000000000000000    0.3333300000000000    0.4599299999999999    Ce010
    0.2222200000000000    0.4444400000000000    0.3099600000000000    Ce011
    0.1111100000000000    0.5555600000000001    0.1599900000000000    Ce012
    0.3333300000000000    0.3333300000000000    0.4599299999999999    Ce013
    0.5555600000000001    0.4444400000000000    0.3099600000000000    Ce014
    0.4444399999999999    0.5555600000000001    0.1599900000000000    Ce015
    0.6666700000000000    0.3333300000000000    0.4599299999999999    Ce016
    0.8888899999999997    0.4444400000000000    0.3099600000000000    Ce017
    0.7777799999999999    0.5555600000000001    0.1599900000000000    Ce018
    0.0000000000000000    0.6666700000000000    0.4599299999999999    Ce019
    0.2222200000000000    0.7777800000000000    0.3099600000000000    Ce020
    0.1111100000000000    0.8888900000000001    0.1599900000000000    Ce021
    0.3333300000000000    0.6666700000000000    0.4599299999999999    Ce022
    0.5555600000000001    0.7777800000000000    0.3099600000000000    Ce023
    0.4444399999999999    0.8888900000000001    0.1599900000000000    Ce024
    0.6666699999999999    0.6666700000000000    0.4599299999999999    Ce025
    0.8888899999999997    0.7777800000000000    0.3099600000000000    Ce026
    0.7777799999999999    0.8888900000000001    0.1599900000000000    Ce027
    0.0000000000000000    0.0000000000000000    0.1225000000000000     O001
    0.1111100000000000    0.2222200000000000    0.2724700000000000     O002
    0.2222200000000000    0.1111100000000000    0.4224400000000000     O003
    0.1111100000000000    0.2222200000000000    0.0475100000000000     O004
    0.1111100000000000    0.2222200000000000    0.4974200000000000     O005
    0.0000000000000000    0.0000000000000000    0.3474500000000000     O006
    0.2222200000000000    0.1111100000000000    0.1974800000000000     O007
    0.3333300000000000    0.0000000000000000    0.1225000000000000     O008
    0.4444400000000000    0.2222200000000000    0.2724700000000000     O009
    0.5555600000000001    0.1111100000000000    0.4224400000000000     O010
    0.4444400000000000    0.2222200000000000    0.0475100000000000     O011
    0.4444400000000000    0.2222200000000000    0.4974200000000000     O012
    0.3333300000000000    0.0000000000000000    0.3474500000000000     O013
    0.5555600000000001    0.1111100000000000    0.1974800000000000     O014
    0.6666700000000000    0.0000000000000000    0.1225000000000000     O015
    0.7777799999999999    0.2222200000000000    0.2724700000000000     O016
    0.8888899999999997    0.1111100000000000    0.4224400000000000     O017
    0.7777799999999999    0.2222200000000000    0.0475100000000000     O018
    0.7777799999999999    0.2222200000000000    0.4974200000000000     O019
    0.6666700000000000    0.0000000000000000    0.3474500000000000     O020
    0.8888899999999997    0.1111100000000000    0.1974800000000000     O021
    0.0000000000000000    0.3333300000000000    0.1225000000000000     O022
    0.1111100000000000    0.5555600000000001    0.2724700000000000     O023
    0.2222200000000000    0.4444400000000000    0.4224400000000000     O024
    0.1111100000000000    0.5555600000000001    0.0475100000000000     O025
    0.1111100000000000    0.5555600000000001    0.4974200000000000     O026
    0.0000000000000000    0.3333300000000000    0.3474500000000000     O027
    0.2222200000000000    0.4444400000000000    0.1974800000000000     O028
    0.3333300000000000    0.3333300000000000    0.1225000000000000     O029
    0.4444399999999999    0.5555600000000001    0.2724700000000000     O030
    0.5555600000000001    0.4444400000000000    0.4224400000000000     O031
    0.4444399999999999    0.5555600000000001    0.0475100000000000     O032
    0.4444399999999999    0.5555600000000001    0.4974200000000000     O033
    0.3333300000000000    0.3333300000000000    0.3474500000000000     O034
    0.5555600000000001    0.4444400000000000    0.1974800000000000     O035
    0.6666700000000000    0.3333300000000000    0.1225000000000000     O036
    0.7777799999999999    0.5555600000000001    0.2724700000000000     O037
    0.8888899999999997    0.4444400000000000    0.4224400000000000     O038
    0.7777799999999999    0.5555600000000001    0.0475100000000000     O039
    0.7777799999999999    0.5555600000000001    0.4974200000000000     O040
    0.6666700000000000    0.3333300000000000    0.3474500000000000     O041
    0.8888899999999997    0.4444400000000000    0.1974800000000000     O042
    0.0000000000000000    0.6666700000000000    0.1225000000000000     O043
    0.1111100000000000    0.8888900000000001    0.2724700000000000     O044
    0.2222200000000000    0.7777800000000000    0.4224400000000000     O045
    0.1111100000000000    0.8888900000000001    0.0475100000000000     O046
    0.1111100000000000    0.8888900000000001    0.4974200000000000     O047
    0.0000000000000000    0.6666700000000000    0.3474500000000000     O048
    0.2222200000000000    0.7777800000000000    0.1974800000000000     O049
    0.3333300000000000    0.6666700000000000    0.1225000000000000     O050
    0.4444399999999999    0.8888900000000001    0.2724700000000000     O051
    0.5555600000000001    0.7777800000000000    0.4224400000000000     O052
    0.4444399999999999    0.8888900000000001    0.0475100000000000     O053
    0.4444399999999999    0.8888900000000001    0.4974200000000000     O054
    0.3333300000000000    0.6666700000000000    0.3474500000000000     O055
    0.5555600000000001    0.7777800000000000    0.1974800000000000     O056
    0.6666699999999999    0.6666700000000000    0.1225000000000000     O057
    0.7777799999999999    0.8888900000000001    0.2724700000000000     O058
    0.8888899999999997    0.7777800000000000    0.4224400000000000     O059
    0.7777799999999999    0.8888900000000001    0.0475100000000000     O060
    0.7777799999999999    0.8888900000000001    0.4974200000000000     O061
    0.6666699999999999    0.6666700000000000    0.3474500000000000     O062
    0.8888899999999997    0.7777800000000000    0.1974800000000000     O063
