Generated by VASPKIT code               
   1.00000000000000     
    15.4643001556000002    0.0000000000000000    0.0000000000000000
    -7.7321500778000001   13.3924767864999996    0.0000000000000000
     0.0000000000000000    0.0000000000000000   21.0482006073000001
  Ce              O               Ir            
    32    98     4
Selective dynamics
Direct
  0.0009123358281400  0.9997520297896898  0.4606864682193930   T   T   T
  0.1666700000000034  0.0833299999999966  0.3099599999999967   F   F   F
  0.2451664969427299  0.9951655864717566  0.4595268654820046   T   T   T
  0.4166700000000034  0.0833299999999966  0.3099599999999967   F   F   F
  0.4970523577411399  0.0016846939865260  0.4622113552430918   T   T   T
  0.6666700000000034  0.0833299999999966  0.3099599999999967   F   F   F
  0.7565869820439559  0.0031988905199540  0.4602059246603858   T   T   T
  0.9166700000000034  0.0833299999999966  0.3099599999999967   F   F   F
  0.9992265256893731  0.2497842678027951  0.4605206444957659   T   T   T
  0.1666700000000034  0.3333299999999966  0.3099599999999967   F   F   F
  0.2473266683480873  0.2513412136498161  0.4627895460544522   T   T   T
  0.4166700000000034  0.3333299999999966  0.3099599999999967   F   F   F
  0.5029485850966680  0.2483988236033667  0.4641834859123222   T   T   T
  0.6666700000000034  0.3333299999999966  0.3099599999999967   F   F   F
  0.7510065816497118  0.2496827082374722  0.4602365037477369   T   T   T
  0.9166700000000034  0.3333299999999966  0.3099599999999967   F   F   F
  0.0010336158754569  0.4997890018999982  0.4606799213931723   T   T   T
  0.1666700000000034  0.5833299999999966  0.3099599999999967   F   F   F
  0.2449303100823101  0.4946014715111744  0.4594300993296514   T   T   T
  0.4166700000000034  0.5833299999999966  0.3099599999999967   F   F   F
  0.4968666489521851  0.5018600043996884  0.4620223275997830   T   T   T
  0.6666700000000034  0.5833299999999966  0.3099599999999967   F   F   F
  0.7570077197206544  0.5033263467131945  0.4601157589385565   T   T   T
  0.9166700000000034  0.5833299999999966  0.3099599999999967   F   F   F
  0.9991904062254449  0.7499436040540672  0.4604663466614127   T   T   T
  0.1666700000000034  0.8333299999999966  0.3099599999999967   F   F   F
  0.2470063987062545  0.7515800626604161  0.4625118445102387   T   T   T
  0.4166700000000034  0.8333299999999966  0.3099599999999967   F   F   F
  0.5031149180005343  0.7487550154548686  0.4642229419717836   T   T   T
  0.6666700000000034  0.8333299999999966  0.3099599999999967   F   F   F
  0.7509021639750699  0.7497313941641437  0.4602729289639740   T   T   T
  0.9166700000000034  0.8333299999999966  0.3099599999999967   F   F   F
  0.0833299999999966  0.1666700000000034  0.2724699999999984   F   F   F
  0.1668855871997650  0.0837602620392914  0.4224309178761274   T   T   T
  0.0831685248328071  0.1668094289137585  0.4979659711844278   T   T   T
  0.0000000000000000  0.0000000000000000  0.3474500000000020   F   F   F
  0.1666700000000034  0.0833299999999966  0.1974799999999988   F   F   F
  0.2092289726049970  0.0689620255090801  0.6058339655422884   T   T   T
  0.3333299999999966  0.1666700000000034  0.2724699999999984   F   F   F
  0.4170082340247916  0.0868186480763171  0.4233023364204058   T   T   T
  0.3249930898648259  0.1577829117956995  0.5010688885456389   T   T   T
  0.2500000000000000  0.0000000000000000  0.3474500000000020   F   F   F
  0.4166700000000034  0.0833299999999966  0.1974799999999988   F   F   F
  0.5833299999999966  0.1666700000000034  0.2724699999999984   F   F   F
  0.6672495858180127  0.0822527048787194  0.4223105855831832   T   T   T
  0.5859130359488987  0.1657838419962516  0.4956515074137400   T   T   T
  0.5000000000000000  0.0000000000000000  0.3474500000000020   F   F   F
  0.6666700000000034  0.0833299999999966  0.1974799999999988   F   F   F
  0.6787546078411779  0.0428689739534178  0.6076850460630183   T   T   T
  0.8333299999999966  0.1666700000000034  0.2724699999999984   F   F   F
  0.9183049726356103  0.0840700805223946  0.4217608411206228   T   T   T
  0.8357776034628586  0.1679118246519948  0.4968695530609679   T   T   T
  0.7500000000000000  0.0000000000000000  0.3474500000000020   F   F   F
  0.9166700000000034  0.0833299999999966  0.1974799999999988   F   F   F
  0.0833299999999966  0.4166700000000034  0.2724699999999984   F   F   F
  0.1628471955687587  0.3305607102054609  0.4213426375064770   T   T   T
  0.0811036723113716  0.4143352323872165  0.4969377825455012   T   T   T
  0.0000000000000000  0.2500000000000000  0.3474500000000020   F   F   F
  0.1666700000000034  0.3333299999999966  0.1974799999999988   F   F   F
  0.3333299999999966  0.4166700000000034  0.2724699999999984   F   F   F
  0.4202739859321838  0.3324565709014635  0.4270821092463777   T   T   T
  0.3274296743067779  0.4170424146562510  0.4909412176364611   T   T   T
  0.2500000000000000  0.2500000000000000  0.3474500000000020   F   F   F
  0.4166700000000034  0.3333299999999966  0.1974799999999988   F   F   F
  0.4761028367189297  0.2746154910211374  0.5737247416099081   T   T   T
  0.5833299999999966  0.4166700000000034  0.2724699999999984   F   F   F
  0.6664883514099742  0.3352481213930076  0.4239707500071006   T   T   T
  0.5948288431687203  0.4274088748440619  0.5038619162572928   T   T   T
  0.5000000000000000  0.2500000000000000  0.3474500000000020   F   F   F
  0.6666700000000034  0.3333299999999966  0.1974799999999988   F   F   F
  0.8333299999999966  0.4166700000000034  0.2724699999999984   F   F   F
  0.9161604640703871  0.3328945730628448  0.4216574350940476   T   T   T
  0.8376034691891903  0.4185598694317534  0.4964474806686070   T   T   T
  0.7500000000000000  0.2500000000000000  0.3474500000000020   F   F   F
  0.9166700000000034  0.3333299999999966  0.1974799999999988   F   F   F
  0.0833299999999966  0.6666700000000034  0.2724699999999984   F   F   F
  0.1671704032676686  0.5838431206763346  0.4224468007351447   T   T   T
  0.0828831960788747  0.6667471576288264  0.4979315842843732   T   T   T
  0.0000000000000000  0.5000000000000000  0.3474500000000020   F   F   F
  0.1666700000000034  0.5833299999999966  0.1974799999999988   F   F   F
  0.2057456934664259  0.5721895495401768  0.6099966719775693   T   T   T
  0.3333299999999966  0.6666700000000034  0.2724699999999984   F   F   F
  0.4163508102881366  0.5868959546841310  0.4235439346202412   T   T   T
  0.3233309173528838  0.6564270021608678  0.5030447577028596   T   T   T
  0.2500000000000000  0.5000000000000000  0.3474500000000020   F   F   F
  0.4166700000000034  0.5833299999999966  0.1974799999999988   F   F   F
  0.5833299999999966  0.6666700000000034  0.2724699999999984   F   F   F
  0.6669926060505418  0.5817319783380910  0.4224323108058954   T   T   T
  0.5854098063859396  0.6655024901969497  0.4956108023888106   T   T   T
  0.5000000000000000  0.5000000000000000  0.3474500000000020   F   F   F
  0.6666700000000034  0.5833299999999966  0.1974799999999988   F   F   F
  0.6751965090921459  0.5461239455427247  0.6116690814254113   T   T   T
  0.8333299999999966  0.6666700000000034  0.2724699999999984   F   F   F
  0.9183461848571142  0.5841100300940951  0.4217653547792253   T   T   T
  0.8354543616921362  0.6677076068547407  0.4970314688259165   T   T   T
  0.7500000000000000  0.5000000000000000  0.3474500000000020   F   F   F
  0.9166700000000034  0.5833299999999966  0.1974799999999988   F   F   F
  0.0833299999999966  0.9166700000000034  0.2724699999999984   F   F   F
  0.1628799426824017  0.8307017002802723  0.4213398696831092   T   T   T
  0.0808357886338342  0.9141084820242114  0.4966609362334182   T   T   T
  0.0000000000000000  0.7500000000000000  0.3474500000000020   F   F   F
  0.1666700000000034  0.8333299999999966  0.1974799999999988   F   F   F
  0.3333299999999966  0.9166700000000034  0.2724699999999984   F   F   F
  0.4191848448815136  0.8312642168286288  0.4271076720144009   T   T   T
  0.3279156944307644  0.9174556753188980  0.4906871532092509   T   T   T
  0.2500000000000000  0.7500000000000000  0.3474500000000020   F   F   F
  0.4166700000000034  0.8333299999999966  0.1974799999999988   F   F   F
  0.4757299068522016  0.7747471070976601  0.5736357572078106   T   T   T
  0.5833299999999966  0.9166700000000034  0.2724699999999984   F   F   F
  0.6667294256740206  0.8348215756404329  0.4238520976441080   T   T   T
  0.5938748396509865  0.9260542071207638  0.5019739357138491   T   T   T
  0.5000000000000000  0.7500000000000000  0.3474500000000020   F   F   F
  0.6666700000000034  0.8333299999999966  0.1974799999999988   F   F   F
  0.8333299999999966  0.9166700000000034  0.2724699999999984   F   F   F
  0.9158984281240521  0.8326552160482024  0.4216232318562376   T   T   T
  0.8375734929100034  0.9184543181372860  0.4964410121824585   T   T   T
  0.7500000000000000  0.7500000000000000  0.3474500000000020   F   F   F
  0.9166700000000034  0.8333299999999966  0.1974799999999988   F   F   F
  0.4857102102911171  0.4517894568966838  0.5779776423785350   T   T   T
  0.2975975069693675  0.7627657283871017  0.5791712924303241   T   T   T
  0.4873800523284757  0.9507367250271415  0.5792349879948731   T   T   T
  0.5334504737271573  0.3837931438582629  0.6811454646721202   T   T   T
  0.3661421579753323  0.7129816674929330  0.6813675169862066   T   T   T
  0.5405646553459320  0.8852172625777257  0.6817552317839457   T   T   T
  0.6577280608945912  0.3704115852186618  0.5952903047483034   T   T   T
  0.3827016478484353  0.5932520758232940  0.5932080087779497   T   T   T
  0.6571655220958306  0.8656279462927046  0.5924355401340691   T   T   T
  0.2995001021707324  0.2611821858656214  0.5808096561542939   T   T   T
  0.3653616979500214  0.2047470642707268  0.6819556378466487   T   T   T
  0.3872982234464573  0.0932060873654237  0.5898202801850729   T   T   T
  0.5795911218022809  0.9185438355292845  0.6035451116718207   T   T   T
  0.3299806485390420  0.6708603429033246  0.6039177314281972   T   T   T
  0.5783151461127858  0.4214648345901253  0.6043470138173461   T   T   T
  0.3333178728831214  0.1693307925495162  0.6031053480227584   T   T   T
 
  0.00000000E+00  0.00000000E+00  0.00000000E+00
  0.00000000E+00  0.00000000E+00  0.00000000E+00
  0.00000000E+00  0.00000000E+00  0.00000000E+00
  0.00000000E+00  0.00000000E+00  0.00000000E+00
  0.00000000E+00  0.00000000E+00  0.00000000E+00
  0.00000000E+00  0.00000000E+00  0.00000000E+00
  0.00000000E+00  0.00000000E+00  0.00000000E+00
  0.00000000E+00  0.00000000E+00  0.00000000E+00
  0.00000000E+00  0.00000000E+00  0.00000000E+00
  0.00000000E+00  0.00000000E+00  0.00000000E+00
  0.00000000E+00  0.00000000E+00  0.00000000E+00
  0.00000000E+00  0.00000000E+00  0.00000000E+00
  0.00000000E+00  0.00000000E+00  0.00000000E+00
  0.00000000E+00  0.00000000E+00  0.00000000E+00
  0.00000000E+00  0.00000000E+00  0.00000000E+00
  0.00000000E+00  0.00000000E+00  0.00000000E+00
  0.00000000E+00  0.00000000E+00  0.00000000E+00
  0.00000000E+00  0.00000000E+00  0.00000000E+00
  0.00000000E+00  0.00000000E+00  0.00000000E+00
  0.00000000E+00  0.00000000E+00  0.00000000E+00
  0.00000000E+00  0.00000000E+00  0.00000000E+00
  0.00000000E+00  0.00000000E+00  0.00000000E+00
  0.00000000E+00  0.00000000E+00  0.00000000E+00
  0.00000000E+00  0.00000000E+00  0.00000000E+00
  0.00000000E+00  0.00000000E+00  0.00000000E+00
  0.00000000E+00  0.00000000E+00  0.00000000E+00
  0.00000000E+00  0.00000000E+00  0.00000000E+00
  0.00000000E+00  0.00000000E+00  0.00000000E+00
  0.00000000E+00  0.00000000E+00  0.00000000E+00
  0.00000000E+00  0.00000000E+00  0.00000000E+00
  0.00000000E+00  0.00000000E+00  0.00000000E+00
  0.00000000E+00  0.00000000E+00  0.00000000E+00
  0.00000000E+00  0.00000000E+00  0.00000000E+00
  0.00000000E+00  0.00000000E+00  0.00000000E+00
  0.00000000E+00  0.00000000E+00  0.00000000E+00
  0.00000000E+00  0.00000000E+00  0.00000000E+00
  0.00000000E+00  0.00000000E+00  0.00000000E+00
  0.00000000E+00  0.00000000E+00  0.00000000E+00
  0.00000000E+00  0.00000000E+00  0.00000000E+00
  0.00000000E+00  0.00000000E+00  0.00000000E+00
  0.00000000E+00  0.00000000E+00  0.00000000E+00
  0.00000000E+00  0.00000000E+00  0.00000000E+00
  0.00000000E+00  0.00000000E+00  0.00000000E+00
  0.00000000E+00  0.00000000E+00  0.00000000E+00
  0.00000000E+00  0.00000000E+00  0.00000000E+00
  0.00000000E+00  0.00000000E+00  0.00000000E+00
  0.00000000E+00  0.00000000E+00  0.00000000E+00
  0.00000000E+00  0.00000000E+00  0.00000000E+00
  0.00000000E+00  0.00000000E+00  0.00000000E+00
  0.00000000E+00  0.00000000E+00  0.00000000E+00
  0.00000000E+00  0.00000000E+00  0.00000000E+00
  0.00000000E+00  0.00000000E+00  0.00000000E+00
  0.00000000E+00  0.00000000E+00  0.00000000E+00
  0.00000000E+00  0.00000000E+00  0.00000000E+00
  0.00000000E+00  0.00000000E+00  0.00000000E+00
  0.00000000E+00  0.00000000E+00  0.00000000E+00
  0.00000000E+00  0.00000000E+00  0.00000000E+00
  0.00000000E+00  0.00000000E+00  0.00000000E+00
  0.00000000E+00  0.00000000E+00  0.00000000E+00
  0.00000000E+00  0.00000000E+00  0.00000000E+00
  0.00000000E+00  0.00000000E+00  0.00000000E+00
  0.00000000E+00  0.00000000E+00  0.00000000E+00
  0.00000000E+00  0.00000000E+00  0.00000000E+00
  0.00000000E+00  0.00000000E+00  0.00000000E+00
  0.00000000E+00  0.00000000E+00  0.00000000E+00
  0.00000000E+00  0.00000000E+00  0.00000000E+00
  0.00000000E+00  0.00000000E+00  0.00000000E+00
  0.00000000E+00  0.00000000E+00  0.00000000E+00
  0.00000000E+00  0.00000000E+00  0.00000000E+00
  0.00000000E+00  0.00000000E+00  0.00000000E+00
  0.00000000E+00  0.00000000E+00  0.00000000E+00
  0.00000000E+00  0.00000000E+00  0.00000000E+00
  0.00000000E+00  0.00000000E+00  0.00000000E+00
  0.00000000E+00  0.00000000E+00  0.00000000E+00
  0.00000000E+00  0.00000000E+00  0.00000000E+00
  0.00000000E+00  0.00000000E+00  0.00000000E+00
  0.00000000E+00  0.00000000E+00  0.00000000E+00
  0.00000000E+00  0.00000000E+00  0.00000000E+00
  0.00000000E+00  0.00000000E+00  0.00000000E+00
  0.00000000E+00  0.00000000E+00  0.00000000E+00
  0.00000000E+00  0.00000000E+00  0.00000000E+00
  0.00000000E+00  0.00000000E+00  0.00000000E+00
  0.00000000E+00  0.00000000E+00  0.00000000E+00
  0.00000000E+00  0.00000000E+00  0.00000000E+00
  0.00000000E+00  0.00000000E+00  0.00000000E+00
  0.00000000E+00  0.00000000E+00  0.00000000E+00
  0.00000000E+00  0.00000000E+00  0.00000000E+00
  0.00000000E+00  0.00000000E+00  0.00000000E+00
  0.00000000E+00  0.00000000E+00  0.00000000E+00
  0.00000000E+00  0.00000000E+00  0.00000000E+00
  0.00000000E+00  0.00000000E+00  0.00000000E+00
  0.00000000E+00  0.00000000E+00  0.00000000E+00
  0.00000000E+00  0.00000000E+00  0.00000000E+00
  0.00000000E+00  0.00000000E+00  0.00000000E+00
  0.00000000E+00  0.00000000E+00  0.00000000E+00
  0.00000000E+00  0.00000000E+00  0.00000000E+00
  0.00000000E+00  0.00000000E+00  0.00000000E+00
  0.00000000E+00  0.00000000E+00  0.00000000E+00
  0.00000000E+00  0.00000000E+00  0.00000000E+00
  0.00000000E+00  0.00000000E+00  0.00000000E+00
  0.00000000E+00  0.00000000E+00  0.00000000E+00
  0.00000000E+00  0.00000000E+00  0.00000000E+00
  0.00000000E+00  0.00000000E+00  0.00000000E+00
  0.00000000E+00  0.00000000E+00  0.00000000E+00
  0.00000000E+00  0.00000000E+00  0.00000000E+00
  0.00000000E+00  0.00000000E+00  0.00000000E+00
  0.00000000E+00  0.00000000E+00  0.00000000E+00
  0.00000000E+00  0.00000000E+00  0.00000000E+00
  0.00000000E+00  0.00000000E+00  0.00000000E+00
  0.00000000E+00  0.00000000E+00  0.00000000E+00
  0.00000000E+00  0.00000000E+00  0.00000000E+00
  0.00000000E+00  0.00000000E+00  0.00000000E+00
  0.00000000E+00  0.00000000E+00  0.00000000E+00
  0.00000000E+00  0.00000000E+00  0.00000000E+00
  0.00000000E+00  0.00000000E+00  0.00000000E+00
  0.00000000E+00  0.00000000E+00  0.00000000E+00
  0.00000000E+00  0.00000000E+00  0.00000000E+00
  0.00000000E+00  0.00000000E+00  0.00000000E+00
  0.00000000E+00  0.00000000E+00  0.00000000E+00
  0.00000000E+00  0.00000000E+00  0.00000000E+00
  0.00000000E+00  0.00000000E+00  0.00000000E+00
  0.00000000E+00  0.00000000E+00  0.00000000E+00
  0.00000000E+00  0.00000000E+00  0.00000000E+00
  0.00000000E+00  0.00000000E+00  0.00000000E+00
  0.00000000E+00  0.00000000E+00  0.00000000E+00
  0.00000000E+00  0.00000000E+00  0.00000000E+00
  0.00000000E+00  0.00000000E+00  0.00000000E+00
  0.00000000E+00  0.00000000E+00  0.00000000E+00
  0.00000000E+00  0.00000000E+00  0.00000000E+00
  0.00000000E+00  0.00000000E+00  0.00000000E+00
  0.00000000E+00  0.00000000E+00  0.00000000E+00
  0.00000000E+00  0.00000000E+00  0.00000000E+00
  0.00000000E+00  0.00000000E+00  0.00000000E+00
  0.00000000E+00  0.00000000E+00  0.00000000E+00
