  134  134    1    2
  0.3253129E+02  0.1546430E-08  0.1546430E-08  0.2104820E-08  0.5000000E-15
  1.000000000000000E-004
  CAR 
 unknown system                          
   1008      1    672
 
  1. kpoint:   0.0000000E+00  0.0000000E+00  0.0000000E+00  0.1000000E+01
   1        2.9166      1.4009    1.00   1.00
   2       10.1499      9.8147    0.00   0.00
   3        6.1654      6.0785    1.00   1.00
   4        1.2574      7.8171    1.00   0.00
   5       12.9974      4.2980    0.00   1.00
   6        4.7230      3.1391    1.00   1.00
   7        2.9590      6.2700    1.00   1.00
   8       13.8369      3.2142    0.00   1.00
   9        8.8483      5.0672    0.00   1.00
  10       10.8801      9.7671    0.00   0.00
  11        5.4217      9.3575    1.00   0.00
  12        1.7185     11.3904    1.00   0.00
  13        3.6996      2.7397    1.00   1.00
  14        2.4511      2.3551    1.00   1.00
  15       19.8897      7.4791    0.00   0.00
  16        2.0973      7.4127    1.00   0.00
  17       10.3524      1.7538    0.00   1.00
  18        1.0387      4.9934    1.00   1.00
  19        1.2998      1.2134    1.00   1.00
  20        3.6786      3.3967    1.00   1.00
  21        9.2151      1.0964    0.00   1.00
  22        1.4123     10.0716    1.00   0.00
  23        1.0532     11.7134    1.00   0.00
  24        2.0422     11.1763    1.00   0.00
  25        8.6726      3.1391    0.00   1.00
  26        4.5738     10.5685    1.00   0.00
  27        2.0874      2.8433    1.00   1.00
  28        2.2450      1.8232    1.00   1.00
  29       15.8049      2.5371    0.00   1.00
  30        8.8011     10.4302    0.00   0.00
  31        5.9812      5.4377    1.00   1.00
  32        1.4405      1.0203    1.00   1.00
  33        7.3846      5.0485    0.00   1.00
  34        8.7868      9.1366    0.00   0.00
  35        2.0506      2.5054    1.00   1.00
  36        1.2015      1.3833    1.00   1.00
  37        2.4848      4.4840    1.00   1.00
  38       17.9246      5.3256    0.00   1.00
  39        5.9629      6.0275    1.00   1.00
  40        1.1860      3.1608    1.00   1.00
  41        3.5312      1.9296    1.00   1.00
  42        6.0595      7.5597    1.00   0.00
  43        1.2165      2.3264    1.00   1.00
  44        1.7773      3.2149    1.00   1.00
  45        2.7613      1.4019    1.00   1.00
  46        1.1462      4.6599    1.00   1.00
  47        5.6567      4.4229    1.00   1.00
  48        2.1174      8.4680    1.00   0.00
  49        1.8979      2.9061    1.00   1.00
  50        2.2216      1.2683    1.00   1.00
  51        2.7186      7.0979    1.00   0.00
  52        2.3510      2.1405    1.00   1.00
  53        1.3567     12.0555    1.00   0.00
  54        1.3725      2.8687    1.00   1.00
  55        1.6679     14.1350    1.00   0.00
  56        3.1523     12.1710    1.00   0.00
  57        7.8477      4.0948    0.00   1.00
  58        8.5862      1.5187    0.00   1.00
  59        1.1632      3.1432    1.00   1.00
  60        3.1377     13.4104    1.00   0.00
  61        5.7367      3.6347    1.00   1.00
  62        9.2271      6.8080    0.00   1.00
  63        3.4846      8.9500    1.00   0.00
  64        1.9956      1.0824    1.00   1.00
  65        3.7103      9.0320    1.00   0.00
  66        1.2685      4.3423    1.00   1.00
  67        1.3103      1.6528    1.00   1.00
  68        2.1488      8.3855    1.00   0.00
  69        1.6605      2.0928    1.00   1.00
  70       14.0719      2.2335    0.00   1.00
  71        2.0150      6.5253    1.00   1.00
  72        7.1491      1.4617    0.00   1.00
  73        1.1590      1.4898    1.00   1.00
  74        4.6308      3.1641    1.00   1.00
  75        3.5344     13.0271    1.00   0.00
  76        6.4584      4.1532    1.00   1.00
  77        2.6995      1.4043    1.00   1.00
  78        1.8080      6.6213    1.00   1.00
  79        1.5949      7.8047    1.00   0.00
  80        3.8741     14.2534    1.00   0.00
  81        1.0760      2.6321    1.00   1.00
  82        2.0971      7.5046    1.00   0.00
  83        9.2999      4.8441    0.00   1.00
  84        7.4600      2.2019    0.00   1.00
  85        1.4290      1.5358    1.00   1.00
  86        2.0667      1.2252    1.00   1.00
  87        2.2850      1.2043    1.00   1.00
  88        5.2586      2.7546    1.00   1.00
  89        5.8872      1.2454    1.00   1.00
  90        1.6730      4.4348    1.00   1.00
  91        6.5879      9.9238    1.00   0.00
  92        7.9756      1.3163    0.00   1.00
  93        1.1580      1.0863    1.00   1.00
  94        3.2169      1.2807    1.00   1.00
  95        9.2781      1.1924    0.00   1.00
  96        1.3539      2.3369    1.00   1.00
  97        1.1855      1.8649    1.00   1.00
  98        1.6201      7.7054    1.00   0.00
  99        1.4944      8.7308    1.00   0.00
 100        6.0819     14.3537    1.00   0.00
 101        7.6219      1.0838    0.00   1.00
 102        9.0193     10.5504    0.00   0.00
 103        4.5254      6.5361    1.00   1.00
 104        1.2580      2.3018    1.00   1.00
 105        8.2284      6.1979    0.00   1.00
 106       17.8626      4.1303    0.00   1.00
 107        6.3338      1.6329    1.00   1.00
 108        3.3226      4.1518    1.00   1.00
 109        3.9270      7.9727    1.00   0.00
 110        5.0394      4.5083    1.00   1.00
 111        5.5046      5.3246    1.00   1.00
 112        1.4835      1.0938    1.00   1.00
 113        2.3162      4.0755    1.00   1.00
 114        1.3328      1.0978    1.00   1.00
 115        2.6200      5.0853    1.00   1.00
 116        5.5149      1.0793    1.00   1.00
 117       15.8976      1.1803    0.00   1.00
 118        5.8119      7.1289    1.00   0.00
 119        6.0128     14.0858    1.00   0.00
 120        5.2229      3.3279    1.00   1.00
 121        5.2369      4.5768    1.00   1.00
 122       12.9634      1.1270    0.00   1.00
 123        4.0833      3.9326    1.00   1.00
 124        1.5049      4.5254    1.00   1.00
 125        6.4600      3.9092    1.00   1.00
 126        3.8280      3.3445    1.00   1.00
 127        8.8540      1.5431    0.00   1.00
 128        1.3766      2.8151    1.00   1.00
 129        2.7717     10.7482    1.00   0.00
 130        4.1358      2.6141    1.00   1.00
 131        5.1587      3.7067    1.00   1.00
 132        1.5783      2.3017    1.00   1.00
 133        2.3166      3.1068    1.00   1.00
 134        2.8929      1.2397    1.00   1.00
 135        8.8593      1.2032    0.00   1.00
 136        1.4071      1.4384    1.00   1.00
 137       12.4640      2.8602    0.00   1.00
 138        1.2649      3.4774    1.00   1.00
 139        1.6117      6.8770    1.00   1.00
 140        1.0479      1.7254    1.00   1.00
 141        4.1788      1.1383    1.00   1.00
 142        1.2824      1.2887    1.00   1.00
 143        6.8933     11.9101    1.00   0.00
 144        1.3627      1.3544    1.00   1.00
 145        8.8396      5.4646    0.00   1.00
 146        7.0413      6.2862    0.12   1.00
 147        7.1644      1.2181    0.00   1.00
 148        1.8601      1.5715    1.00   1.00
 149       11.8630      2.6571    0.00   1.00
 150        2.1093      2.3159    1.00   1.00
 151        1.3916     13.8090    1.00   0.00
 152       15.5817      4.4203    0.00   1.00
 153        1.4463      4.0339    1.00   1.00
 154        6.7894      4.7014    1.00   1.00
 155       11.2494      1.7237    0.00   1.00
 156        1.1336      6.0562    1.00   1.00
 157        2.0186      7.1635    1.00   0.00
 158        8.5939      4.4754    0.00   1.00
 159        9.4361      2.6604    0.00   1.00
 160        1.8664      1.5614    1.00   1.00
 161        3.2409      1.9696    1.00   1.00
 162        2.2100     10.8725    1.00   0.00
 163        1.5322     18.1056    1.00   0.00
 164        3.3116      7.2113    1.00   0.00
 165        1.7730      2.2194    1.00   1.00
 166        5.6633      2.2622    1.00   1.00
 167        2.5842     11.7911    1.00   0.00
 168        2.9865      8.2423    1.00   0.00
 169        1.0889      4.7600    1.00   1.00
 170        3.3506      2.5776    1.00   1.00
 171        7.5444     15.3495    0.00   0.00
 172       14.3945     10.5234    0.00   0.00
 173        2.6402      3.4131    1.00   1.00
 174        1.2877      8.0031    1.00   0.00
 175        1.9476      8.6283    1.00   0.00
 176        1.3967      3.0939    1.00   1.00
 177        2.1509      1.4903    1.00   1.00
 178        1.0898      6.2932    1.00   1.00
 179        2.3335      5.2598    1.00   1.00
 180        3.4296      1.1365    1.00   1.00
 181        4.8024     14.3339    1.00   0.00
 182        3.8721     11.0531    1.00   0.00
 183       11.8889      5.2158    0.00   1.00
 184       12.9949     12.0293    0.00   0.00
 185        1.2956      6.8721    1.00   1.00
 186        2.3438      1.6616    1.00   1.00
 187        6.3914      2.0267    1.00   1.00
 188        7.8423      1.8983    0.00   1.00
 189        1.1228      6.8231    1.00   1.00
 190        2.6028      3.7366    1.00   1.00
 191        4.3232     17.4505    1.00   0.00
 192       12.4798      7.6395    0.00   0.00
 193        2.1533      6.3143    1.00   1.00
 194        2.9129      3.9724    1.00   1.00
 195        7.2655      3.9319    0.00   1.00
 196        4.9000      6.0178    1.00   1.00
 197        2.0526     17.1561    1.00   0.00
 198        2.8678      2.1088    1.00   1.00
 199        5.4272      1.3373    1.00   1.00
 200       17.9553      1.1343    0.00   1.00
 201       15.3070      1.8392    0.00   1.00
 202        1.2323      7.5278    1.00   0.00
 203        1.6577      7.4771    1.00   0.00
 204        1.5808     11.5917    1.00   0.00
 205        3.4232      1.6763    1.00   1.00
 206        1.7807     10.7404    1.00   0.00
 207        1.4950      2.4239    1.00   1.00
 208        4.9080     12.3719    1.00   0.00
 209        1.1964      4.4078    1.00   1.00
 210        2.0789      1.8409    1.00   1.00
 211        3.6418      5.1015    1.00   1.00
 212        2.7721      2.1772    1.00   1.00
 213        4.8544      1.9995    1.00   1.00
 214        3.2378      6.1471    1.00   1.00
 215        6.8948      1.0083    1.00   1.00
 216        4.3778      1.8557    1.00   1.00
 217        2.0095      6.3096    1.00   1.00
 218        5.2412      3.7864    1.00   1.00
 219        1.8662      6.2979    1.00   1.00
 220        3.5821      1.3854    1.00   1.00
 221        1.2262      5.4889    1.00   1.00
 222        9.0370     12.7360    0.00   0.00
 223        4.8580     15.6436    1.00   0.00
 224        2.3328      7.6946    1.00   0.00
 225        1.5563      2.2788    1.00   1.00
 226        1.5943      2.0894    1.00   1.00
 227        9.2978      7.1827    0.00   0.00
 228        7.0715      6.9403    0.02   0.95
 229        5.3815      1.4681    1.00   1.00
 230        8.8570      1.6621    0.00   1.00
 231        2.4383      1.0844    1.00   1.00
 232        2.0706      4.3005    1.00   1.00
 233        1.7266      1.3484    1.00   1.00
 234        9.6512      3.3320    0.00   1.00
 235       14.9229      4.8731    0.00   1.00
 236        4.7797      7.3124    1.00   0.00
 237        5.8590      1.1228    1.00   1.00
 238       11.1746      2.5148    0.00   1.00
 239        8.0467      2.3023    0.00   1.00
 240        1.1272      4.1620    1.00   1.00
 241        7.2609      1.9847    0.00   1.00
 242        3.3887      3.0445    1.00   1.00
 243       16.4539      5.2649    0.00   1.00
 244        4.1087      1.6375    1.00   1.00
 245        6.9231      4.9149    0.99   1.00
 246        9.5671      1.7184    0.00   1.00
 247        2.5275      1.4082    1.00   1.00
 248        3.2910     10.5692    1.00   0.00
 249        4.6540      7.3275    1.00   0.00
 250        1.3337      1.2367    1.00   1.00
 251        1.5074      4.4318    1.00   1.00
 252        3.5813      5.9470    1.00   1.00
 253        1.4080      1.9305    1.00   1.00
 254        1.7038      5.5309    1.00   1.00
 255        1.7611      2.6611    1.00   1.00
 256        8.3205      1.0524    0.00   1.00
 257        1.9742      1.2956    1.00   1.00
 258       13.4606      2.3617    0.00   1.00
 259       12.1000      4.3743    0.00   1.00
 260        2.0339      1.9906    1.00   1.00
 261        1.2594      1.4141    1.00   1.00
 262        1.7396      1.5750    1.00   1.00
 263        1.7851      2.6287    1.00   1.00
 264        2.1826      1.3858    1.00   1.00
 265        4.3076     14.8111    1.00   0.00
 266        7.7292      1.6220    0.00   1.00
 267        1.4738      5.1535    1.00   1.00
 268        7.1157      2.5915    0.00   1.00
 269        4.8730      1.0995    1.00   1.00
 270        1.1991      8.4532    1.00   0.00
 271        6.0686      1.2366    1.00   1.00
 272        7.3509      7.6429    0.00   0.00
 273        4.2174      3.1969    1.00   1.00
 274        6.8346      7.1708    1.00   0.00
 275        2.5991      7.9814    1.00   0.00
 276        2.3053      3.4667    1.00   1.00
 277        3.9805     15.2540    1.00   0.00
 278        1.1526      6.5088    1.00   1.00
 279        2.9832      3.3837    1.00   1.00
 280        4.3442      2.5923    1.00   1.00
 281        1.4239      3.5958    1.00   1.00
 282        7.6949      2.7380    0.00   1.00
 283        3.0001      6.4638    1.00   1.00
 284        1.0797      1.1979    1.00   1.00
 285        2.0031      7.7715    1.00   0.00
 286        4.4444      7.1184    1.00   0.00
 287        1.3195      2.9959    1.00   1.00
 288        7.5097      3.6923    0.00   1.00
 289        4.7404      2.1702    1.00   1.00
 290        1.6123      6.3501    1.00   1.00
 291        2.5720      8.2992    1.00   0.00
 292        5.3838      2.2263    1.00   1.00
 293        1.4236      1.0610    1.00   1.00
 294        2.2807      1.4819    1.00   1.00
 295        1.4414     13.4164    1.00   0.00
 296        1.5064      1.5291    1.00   1.00
 297        2.9066     12.0643    1.00   0.00
 298        1.5020     11.6968    1.00   0.00
 299        1.6745      1.3875    1.00   1.00
 300        1.2773      2.3113    1.00   1.00
 301        1.9202     14.7157    1.00   0.00
 302        8.0570      1.7644    0.00   1.00
 303        3.0366      2.2538    1.00   1.00
 304        9.1670      2.4568    0.00   1.00
 305        1.4781      2.4416    1.00   1.00
 306        4.8323      2.3571    1.00   1.00
 307        1.0640      2.7147    1.00   1.00
 308        1.2762     10.7131    1.00   0.00
 309        1.2962      1.1051    1.00   1.00
 310        8.5940      4.0202    0.00   1.00
 311        1.2104      3.4484    1.00   1.00
 312        2.3384      1.4510    1.00   1.00
 313        1.5895      1.0533    1.00   1.00
 314        7.5377      1.3151    0.00   1.00
 315        2.1986      2.1050    1.00   1.00
 316        2.4800      1.2551    1.00   1.00
 317        3.3680      1.3982    1.00   1.00
 318        2.4624      5.5935    1.00   1.00
 319        2.4461      9.1916    1.00   0.00
 320        2.8044      8.5086    1.00   0.00
 321        5.3923      1.3274    1.00   1.00
 322        2.3965      3.0493    1.00   1.00
 323        2.8310      1.5122    1.00   1.00
 324        1.5579      9.0807    1.00   0.00
 325        1.4098      1.0995    1.00   1.00
 326        2.2129      5.2766    1.00   1.00
 327        1.6867      1.2051    1.00   1.00
 328        1.1073      1.8231    1.00   1.00
 329        1.1283      1.3169    1.00   1.00
 330        7.0384     10.1214    0.14   0.00
 331        2.9674      7.9742    1.00   0.00
 332        1.2765      6.4947    1.00   1.00
 333       10.9643      3.4940    0.00   1.00
 334        1.4686      7.9628    1.00   0.00
 335        1.4325      8.3926    1.00   0.00
 336        1.4996      2.6879    1.00   1.00
 337       13.1066      3.2170    0.00   1.00
 338        9.2079      1.5739    0.00   1.00
 339        3.5489      9.1857    1.00   0.00
 340        1.3001      6.0927    1.00   1.00
 341        3.4360      7.7744    1.00   0.00
 342        1.2115      1.5514    1.00   1.00
 343        1.4585      1.3079    1.00   1.00
 344        1.3381      1.2850    1.00   1.00
 345        1.7425     11.5367    1.00   0.00
 346        9.5939      1.5457    0.00   1.00
 347        2.9309      3.2811    1.00   1.00
 348        4.4888      1.1870    1.00   1.00
 349        1.8008      8.9041    1.00   0.00
 350        1.8093      5.0470    1.00   1.00
 351        5.3825      2.6487    1.00   1.00
 352        4.2324      9.5102    1.00   0.00
 353        1.3659      1.5234    1.00   1.00
 354        3.2702     11.3000    1.00   0.00
 355        1.6509      1.1309    1.00   1.00
 356        6.8950      1.2896    1.00   1.00
 357        1.4131      5.6636    1.00   1.00
 358        2.4968      3.3389    1.00   1.00
 359        4.5834      4.2999    1.00   1.00
 360       10.6288      1.1015    0.00   1.00
 361       13.6852      1.4202    0.00   1.00
 362       14.6934      4.0096    0.00   1.00
 363        9.0712      1.0664    0.00   1.00
 364        3.2560      1.8056    1.00   1.00
 365       11.0717      5.9527    0.00   1.00
 366        3.7950      2.0557    1.00   1.00
 367        3.2176      2.6332    1.00   1.00
 368        3.5014      5.9146    1.00   1.00
 369        1.0780      1.2762    1.00   1.00
 370        5.0696      6.6172    1.00   1.00
 371        8.4672      2.8041    0.00   1.00
 372        1.1749      1.1362    1.00   1.00
 373        1.0535      5.2011    1.00   1.00
 374        9.8733      1.0278    0.00   1.00
 375        7.9166      3.0042    0.00   1.00
 376        1.6845     14.0511    1.00   0.00
 377        9.7623      5.7508    0.00   1.00
 378        1.1142      9.4934    1.00   0.00
 379        3.0260      1.8319    1.00   1.00
 380        1.1798     12.6749    1.00   0.00
 381        2.4456      4.9880    1.00   1.00
 382        1.0480      1.9692    1.00   1.00
 383        2.8528      4.7518    1.00   1.00
 384        8.0540     17.6534    0.00   0.00
 385        3.7535      3.2523    1.00   1.00
 386        3.0728      8.3709    1.00   0.00
 387        1.1068      1.3089    1.00   1.00
 388        4.6542      4.1228    1.00   1.00
 389        2.3804      1.5372    1.00   1.00
 390        1.6328      6.9699    1.00   0.80
 391        3.8773     12.9795    1.00   0.00
 392       19.8649      3.4930    0.00   1.00
 393        7.6781      1.7105    0.00   1.00
 394        1.9532      1.0829    1.00   1.00
 395        7.3123      2.7115    0.00   1.00
 396        1.8670      9.9871    1.00   0.00
 397        9.4769      1.7512    0.00   1.00
 398        1.0855      1.2053    1.00   1.00
 399        2.8816      1.6166    1.00   1.00
 400       16.3380      2.7521    0.00   1.00
 401        2.8480      2.8765    1.00   1.00
 402        8.7444      6.9460    0.00   0.94
 403       11.6329      2.9941    0.00   1.00
 404        1.2000      6.6454    1.00   1.00
 405       14.3678      6.7462    0.00   1.00
 406       12.2553      2.8742    0.00   1.00
 407        1.7845      3.6483    1.00   1.00
 408        1.8737      9.8226    1.00   0.00
 409        1.7280      2.0404    1.00   1.00
 410        2.7027      1.0937    1.00   1.00
 411        3.9687      3.8183    1.00   1.00
 412        2.0426      1.1041    1.00   1.00
 413       12.7536      3.5549    0.00   1.00
 414       11.5421      1.1459    0.00   1.00
 415       10.9213     11.7851    0.00   0.00
 416        7.4533      1.4099    0.00   1.00
 417        1.2464      1.3222    1.00   1.00
 418        1.7634      1.2474    1.00   1.00
 419       10.7756     11.2774    0.00   0.00
 420        4.7610      3.5941    1.00   1.00
 421        1.5510      1.1478    1.00   1.00
 422       11.5827      1.2577    0.00   1.00
 423        2.4902      6.0258    1.00   1.00
 424        3.7925      9.0021    1.00   0.00
 425        1.3301      4.7743    1.00   1.00
 426        2.3061      2.3911    1.00   1.00
 427       10.9735      1.7742    0.00   1.00
 428        5.7544      1.6058    1.00   1.00
 429        7.4799      9.4560    0.00   0.00
 430       12.3201     12.2562    0.00   0.00
 431        2.9208      1.1598    1.00   1.00
 432        1.0891      1.3471    1.00   1.00
 433        3.7544      5.9199    1.00   1.00
 434        1.8806      1.8163    1.00   1.00
 435        7.2940      2.1637    0.00   1.00
 436        1.6843     10.0915    1.00   0.00
 437        1.0902      1.4724    1.00   1.00
 438        8.1780      6.9938    0.00   0.57
 439        1.3176      1.4453    1.00   1.00
 440        1.8923     10.7068    1.00   0.00
 441        1.3041      1.3549    1.00   1.00
 442        1.6796      1.3035    1.00   1.00
 443        1.1814      1.2599    1.00   1.00
 444        2.5804      1.3988    1.00   1.00
 445        2.1000      3.0281    1.00   1.00
 446        1.4535      5.1654    1.00   1.00
 447        8.4226      1.6620    0.00   1.00
 448        1.7863      1.3793    1.00   1.00
 449        1.8062      8.7212    1.00   0.00
 450        4.2942      1.0836    1.00   1.00
 451        1.0862      2.2297    1.00   1.00
 452        3.0494      4.6839    1.00   1.00
 453        1.0055      1.8504    1.00   1.00
 454        1.3841      6.3752    1.00   1.00
 455        3.5672      3.5180    1.00   1.00
 456        1.1659      2.6740    1.00   1.00
 457        2.9304      1.0293    1.00   1.00
 458       20.5216      2.1685    0.00   1.00
 459        8.4470      9.1887    0.00   0.00
 460        4.0869      3.0085    1.00   1.00
 461       10.1794      7.4889    0.00   0.00
 462        4.6782      3.8366    1.00   1.00
 463        4.7287     14.3017    1.00   0.00
 464        2.0717      9.9172    1.00   0.00
 465        5.7820      2.2905    1.00   1.00
 466        5.1294     12.1247    1.00   0.00
 467        3.4764      8.3254    1.00   0.00
 468        2.1297      3.5623    1.00   1.00
 469        1.5106      1.0362    1.00   1.00
 470        1.5273      1.4963    1.00   1.00
 471        2.7843      1.9457    1.00   1.00
 472        8.9436      1.5409    0.00   1.00
 473        4.5563      1.3483    1.00   1.00
 474        7.1609      1.3697    0.00   1.00
 475        3.9995     10.9321    1.00   0.00
 476        2.5568      1.2233    1.00   1.00
 477        1.8942      5.6321    1.00   1.00
 478        1.8457     14.2857    1.00   0.00
 479        7.5003      4.9693    0.00   1.00
 480       14.8737      3.6317    0.00   1.00
 481        3.8057      1.3773    1.00   1.00
 482        5.5023      6.3161    1.00   1.00
 483        7.3905      1.1606    0.00   1.00
 484        2.7007     12.0503    1.00   0.00
 485        4.0512      5.5472    1.00   1.00
 486        1.8914      3.9455    1.00   1.00
 487        2.6447     12.9671    1.00   0.00
 488       11.2452      3.1265    0.00   1.00
 489       12.1002      1.7219    0.00   1.00
 490        4.7065      3.7660    1.00   1.00
 491        6.1819      6.9541    1.00   0.90
 492        2.0844      7.3531    1.00   0.00
 493        2.0711      1.8124    1.00   1.00
 494        1.8210      4.5735    1.00   1.00
 495        1.0615      3.7441    1.00   1.00
 496        6.2738      1.9442    1.00   1.00
 497        1.0582      7.4412    1.00   0.00
 498        1.8298      1.9405    1.00   1.00
 499        1.3970     11.5588    1.00   0.00
 500        7.1602      4.0251    0.00   1.00
 501        1.9133      2.9057    1.00   1.00
 502        3.5968      1.5183    1.00   1.00
 503        2.0211      1.3938    1.00   1.00
 504        1.5025      4.2530    1.00   1.00
 505        3.7828      2.7872    1.00   1.00
 506        4.9401      3.5004    1.00   1.00
 507       11.4938      2.1680    0.00   1.00
 508        3.4774     12.2972    1.00   0.00
 509       11.1826      1.3609    0.00   1.00
 510        4.0746      4.3669    1.00   1.00
 511        1.7994      2.5100    1.00   1.00
 512        8.6305      3.3409    0.00   1.00
 513        1.1631      1.7482    1.00   1.00
 514        1.0913      7.2572    1.00   0.00
 515       16.5779      7.2737    0.00   0.00
 516        9.1474      2.0978    0.00   1.00
 517        1.8192      1.2624    1.00   1.00
 518        8.8023      7.3280    0.00   0.00
 519        8.0038      5.2462    0.00   1.00
 520        6.9142      1.7123    0.99   1.00
 521        5.7370      1.4786    1.00   1.00
 522        8.3661      9.5483    0.00   0.00
 523        1.0475      4.5378    1.00   1.00
 524        1.3491      1.6420    1.00   1.00
 525        1.1085      1.4697    1.00   1.00
 526        1.2656      8.2375    1.00   0.00
 527        2.9592      9.1616    1.00   0.00
 528        1.2725      1.3032    1.00   1.00
 529        6.7605      3.1763    1.00   1.00
 530        7.9103      5.8552    0.00   1.00
 531       12.3437      1.0207    0.00   1.00
 532        3.2703      2.9998    1.00   1.00
 533        2.8154      6.7644    1.00   1.00
 534        2.6443      3.5389    1.00   1.00
 535        3.1445      1.2923    1.00   1.00
 536       16.8443      9.1984    0.00   0.00
 537        3.0476     11.5929    1.00   0.00
 538        7.7049     11.0469    0.00   0.00
 539        2.0355      1.1124    1.00   1.00
 540        9.6221      2.1236    0.00   1.00
 541        9.1038      4.0056    0.00   1.00
 542        2.1037      4.3435    1.00   1.00
 543        1.3521      4.4246    1.00   1.00
 544        1.1404      1.4028    1.00   1.00
 545        1.9836     12.7204    1.00   0.00
 546        5.8701      1.1323    1.00   1.00
 547        2.2604      1.7049    1.00   1.00
 548        7.4130     22.5401    0.00   0.00
 549        4.3289      1.2135    1.00   1.00
 550       12.3985      6.5817    0.00   1.00
 551        1.2464     11.5090    1.00   0.00
 552        2.3204      1.0305    1.00   1.00
 553        3.8921      9.2862    1.00   0.00
 554        3.9893      1.1608    1.00   1.00
 555        6.3719      1.1113    1.00   1.00
 556        7.6766      8.3376    0.00   0.00
 557       10.1557      2.4012    0.00   1.00
 558       10.4824      4.1398    0.00   1.00
 559        1.6235      5.4435    1.00   1.00
 560        1.9559      1.5136    1.00   1.00
 561       11.6212      1.8557    0.00   1.00
 562        3.0218     13.0462    1.00   0.00
 563        1.5564      9.9086    1.00   0.00
 564        2.6464      8.4531    1.00   0.00
 565        2.8056      2.4063    1.00   1.00
 566        1.4262      2.1427    1.00   1.00
 567        5.0665      1.7609    1.00   1.00
 568        1.7264      5.1943    1.00   1.00
 569        1.8937      1.1019    1.00   1.00
 570        7.8318      3.8447    0.00   1.00
 571        1.5576      1.9754    1.00   1.00
 572        3.0662     12.0012    1.00   0.00
 573        5.5752      1.5269    1.00   1.00
 574        1.4424      9.9685    1.00   0.00
 575        2.9175     12.2337    1.00   0.00
 576        6.1345     10.4264    1.00   0.00
 577        7.2033      7.7755    0.00   0.00
 578       10.6555      2.3002    0.00   1.00
 579        1.5569     10.7695    1.00   0.00
 580       10.7444      1.2158    0.00   1.00
 581        1.4785      3.0783    1.00   1.00
 582        2.5335      2.2481    1.00   1.00
 583        1.7083      8.9154    1.00   0.00
 584        5.7646      1.5853    1.00   1.00
 585        6.6374      1.3086    1.00   1.00
 586        6.8153      2.2118    1.00   1.00
 587        3.0868      3.4168    1.00   1.00
 588        5.8196      5.1447    1.00   1.00
 589        7.8194      5.0879    0.00   1.00
 590        2.2925      4.2785    1.00   1.00
 591        1.3279      1.5332    1.00   1.00
 592        1.3007      9.0913    1.00   0.00
 593       12.3813      3.5866    0.00   1.00
 594        1.1570      5.8985    1.00   1.00
 595        1.1737      1.1489    1.00   1.00
 596        1.5387      1.2049    1.00   1.00
 597        4.5149      1.8917    1.00   1.00
 598        1.0610      7.1548    1.00   0.00
 599        1.1956     14.4410    1.00   0.00
 600        7.9497      3.0651    0.00   1.00
 601       12.3169      5.7998    0.00   1.00
 602        4.4265      1.9928    1.00   1.00
 603        3.0859      2.2866    1.00   1.00
 604        1.2980      2.4955    1.00   1.00
 605        2.4811      8.9339    1.00   0.00
 606       11.9179     12.0080    0.00   0.00
 607        1.9962     10.1633    1.00   0.00
 608        3.7943     12.5264    1.00   0.00
 609        8.6785      1.6785    0.00   1.00
 610       15.4053      1.1825    0.00   1.00
 611       14.4804      1.3567    0.00   1.00
 612       10.1500      5.0272    0.00   1.00
 613        1.8604      8.0054    1.00   0.00
 614        1.6958      6.9236    1.00   0.98
 615       11.2733     11.5131    0.00   0.00
 616        1.5819      3.7028    1.00   1.00
 617        2.0822      3.2970    1.00   1.00
 618        4.8821     12.0664    1.00   0.00
 619        1.1162      2.3951    1.00   1.00
 620        2.5688      1.7866    1.00   1.00
 621        1.4277     16.4037    1.00   0.00
 622        5.8066     10.0145    1.00   0.00
 623        3.2382     13.9538    1.00   0.00
 624        3.6915      2.2332    1.00   1.00
 625        1.0413      1.5494    1.00   1.00
 626        3.2552      1.7984    1.00   1.00
 627        2.6500      4.2716    1.00   1.00
 628        2.5043      1.0533    1.00   1.00
 629        2.6715      1.0328    1.00   1.00
 630        1.0049      8.7722    1.00   0.00
 631        3.7054     10.2995    1.00   0.00
 632        2.7877      2.1086    1.00   1.00
 633        1.4539      6.9924    1.00   0.59
 634       13.2534      1.3617    0.00   1.00
 635        5.1649      2.6608    1.00   1.00
 636        1.5226      4.0540    1.00   1.00
 637        1.1792      1.7644    1.00   1.00
 638        6.7265      7.4747    1.00   0.00
 639        2.2119      4.6583    1.00   1.00
 640        1.2214      6.3072    1.00   1.00
 641       11.6451     10.4318    0.00   0.00
 642        3.0345      1.6976    1.00   1.00
 643        1.4787      7.9214    1.00   0.00
 644        6.3902      6.4480    1.00   1.00
 645        7.1523      1.7884    0.00   1.00
 646        5.9760      1.1131    1.00   1.00
 647        1.4430     11.9907    1.00   0.00
 648        2.6512      8.2943    1.00   0.00
 649        5.4019      9.3657    1.00   0.00
 650        2.0603     10.5324    1.00   0.00
 651        7.5453     10.8632    0.00   0.00
 652        1.7130     12.3115    1.00   0.00
 653        2.0716      6.5425    1.00   1.00
 654        2.6834      9.9871    1.00   0.00
 655        2.1600      3.3301    1.00   1.00
 656        4.6888      2.6881    1.00   1.00
 657        1.2849      5.7292    1.00   1.00
 658        4.6708      5.3111    1.00   1.00
 659        3.6886      6.9036    1.00   1.00
 660        5.6946     11.0098    1.00   0.00
 661       10.0699      9.9795    0.00   0.00
 662        4.3860      2.5874    1.00   1.00
 663        9.9774      3.2912    0.00   1.00
 664        1.0419      2.9476    1.00   1.00
 665        2.1990      3.1457    1.00   1.00
 666        1.3105      1.6545    1.00   1.00
 667       10.5665      1.1548    0.00   1.00
 668        4.0379      3.1474    1.00   1.00
 669        1.9524      2.7722    1.00   1.00
 670        1.0754      4.0059    1.00   1.00
 671        9.4992      3.2991    0.00   1.00
 672        1.2901      4.1336    1.00   1.00
 
  1. kpoint:   0.0000000E+00  0.0000000E+00  0.0000000E+00  0.1000000E+01
   1        2.9166      1.4009    0.00   0.00
   2       10.1499      9.8147    0.00   0.00
   3        6.1654      6.0785    0.00   0.00
   4        1.2574      7.8171    0.00   0.00
   5       12.9974      4.2980    0.00   0.00
   6        4.7230      3.1391    0.00   0.00
   7        2.9590      6.2700    0.00   0.00
   8       13.8369      3.2142    0.00   0.00
   9        8.8483      5.0672    0.00   0.00
  10       10.8801      9.7671    0.00   0.00
  11        5.4217      9.3575    0.00   0.00
  12        1.7185     11.3904    0.00   0.00
  13        3.6996      2.7397    0.00   0.00
  14        2.4511      2.3551    0.00   0.00
  15       19.8897      7.4791    0.00   0.00
  16        2.0973      7.4127    0.00   0.00
  17       10.3524      1.7538    0.00   0.00
  18        1.0387      4.9934    0.00   0.00
  19        1.2998      1.2134    0.00   0.00
  20        3.6786      3.3967    0.00   0.00
  21        9.2151      1.0964    0.00   0.00
  22        1.4123     10.0716    0.00   0.00
  23        1.0532     11.7134    0.00   0.00
  24        2.0422     11.1763    0.00   0.00
  25        8.6726      3.1391    0.00   0.00
  26        4.5738     10.5685    0.00   0.00
  27        2.0874      2.8433    0.00   0.00
  28        2.2450      1.8232    0.00   0.00
  29       15.8049      2.5371    0.00   0.00
  30        8.8011     10.4302    0.00   0.00
  31        5.9812      5.4377    0.00   0.00
  32        1.4405      1.0203    0.00   0.00
  33        7.3846      5.0485    0.00   0.00
  34        8.7868      9.1366    0.00   0.00
  35        2.0506      2.5054    0.00   0.00
  36        1.2015      1.3833    0.00   0.00
  37        2.4848      4.4840    0.00   0.00
  38       17.9246      5.3256    0.00   0.00
  39        5.9629      6.0275    0.00   0.00
  40        1.1860      3.1608    0.00   0.00
  41        3.5312      1.9296    0.00   0.00
  42        6.0595      7.5597    0.00   0.00
  43        1.2165      2.3264    0.00   0.00
  44        1.7773      3.2149    0.00   0.00
  45        2.7613      1.4019    0.00   0.00
  46        1.1462      4.6599    0.00   0.00
  47        5.6567      4.4229    0.00   0.00
  48        2.1174      8.4680    0.00   0.00
  49        1.8979      2.9061    0.00   0.00
  50        2.2216      1.2683    0.00   0.00
  51        2.7186      7.0979    0.00   1.00
  52        2.3510      2.1405    0.00   0.00
  53        1.3567     12.0555    0.00   0.00
  54        1.3725      2.8687    0.00   0.00
  55        1.6679     14.1350    0.00   0.00
  56        3.1523     12.1710    0.00   0.00
  57        7.8477      4.0948    0.00   0.00
  58        8.5862      1.5187    0.00   0.00
  59        1.1632      3.1432    0.00   0.00
  60        3.1377     13.4104    0.00   0.00
  61        5.7367      3.6347    0.00   0.00
  62        9.2271      6.8080    0.00   0.00
  63        3.4846      8.9500    0.00   0.00
  64        1.9956      1.0824    0.00   0.00
  65        3.7103      9.0320    0.00   0.00
  66        1.2685      4.3423    0.00   0.00
  67        1.3103      1.6528    0.00   0.00
  68        2.1488      8.3855    0.00   0.00
  69        1.6605      2.0928    0.00   0.00
  70       14.0719      2.2335    0.00   0.00
  71        2.0150      6.5253    0.00   0.00
  72        7.1491      1.4617    0.00   0.00
  73        1.1590      1.4898    0.00   0.00
  74        4.6308      3.1641    0.00   0.00
  75        3.5344     13.0271    0.00   0.00
  76        6.4584      4.1532    0.00   0.00
  77        2.6995      1.4043    0.00   0.00
  78        1.8080      6.6213    0.00   0.00
  79        1.5949      7.8047    0.00   0.00
  80        3.8741     14.2534    0.00   0.00
  81        1.0760      2.6321    0.00   0.00
  82        2.0971      7.5046    0.00   0.00
  83        9.2999      4.8441    0.00   0.00
  84        7.4600      2.2019    0.00   0.00
  85        1.4290      1.5358    0.00   0.00
  86        2.0667      1.2252    0.00   0.00
  87        2.2850      1.2043    0.00   0.00
  88        5.2586      2.7546    0.00   0.00
  89        5.8872      1.2454    0.00   0.00
  90        1.6730      4.4348    0.00   0.00
  91        6.5879      9.9238    0.00   0.00
  92        7.9756      1.3163    0.00   0.00
  93        1.1580      1.0863    0.00   0.00
  94        3.2169      1.2807    0.00   0.00
  95        9.2781      1.1924    0.00   0.00
  96        1.3539      2.3369    0.00   0.00
  97        1.1855      1.8649    0.00   0.00
  98        1.6201      7.7054    0.00   0.00
  99        1.4944      8.7308    0.00   0.00
 100        6.0819     14.3537    0.00   0.00
 101        7.6219      1.0838    0.00   0.00
 102        9.0193     10.5504    0.00   0.00
 103        4.5254      6.5361    0.00   0.00
 104        1.2580      2.3018    0.00   0.00
 105        8.2284      6.1979    0.00   0.00
 106       17.8626      4.1303    0.00   0.00
 107        6.3338      1.6329    0.00   0.00
 108        3.3226      4.1518    0.00   0.00
 109        3.9270      7.9727    0.00   0.00
 110        5.0394      4.5083    0.00   0.00
 111        5.5046      5.3246    0.00   0.00
 112        1.4835      1.0938    0.00   0.00
 113        2.3162      4.0755    0.00   0.00
 114        1.3328      1.0978    0.00   0.00
 115        2.6200      5.0853    0.00   0.00
 116        5.5149      1.0793    0.00   0.00
 117       15.8976      1.1803    0.00   0.00
 118        5.8119      7.1289    0.00   0.00
 119        6.0128     14.0858    0.00   0.00
 120        5.2229      3.3279    0.00   0.00
 121        5.2369      4.5768    0.00   0.00
 122       12.9634      1.1270    0.00   0.00
 123        4.0833      3.9326    0.00   0.00
 124        1.5049      4.5254    0.00   0.00
 125        6.4600      3.9092    0.00   0.00
 126        3.8280      3.3445    0.00   0.00
 127        8.8540      1.5431    0.00   0.00
 128        1.3766      2.8151    0.00   0.00
 129        2.7717     10.7482    0.00   0.00
 130        4.1358      2.6141    0.00   0.00
 131        5.1587      3.7067    0.00   0.00
 132        1.5783      2.3017    0.00   0.00
 133        2.3166      3.1068    0.00   0.00
 134        2.8929      1.2397    0.00   0.00
 135        8.8593      1.2032    0.00   0.00
 136        1.4071      1.4384    0.00   0.00
 137       12.4640      2.8602    0.00   0.00
 138        1.2649      3.4774    0.00   0.00
 139        1.6117      6.8770    0.00   0.00
 140        1.0479      1.7254    0.00   0.00
 141        4.1788      1.1383    0.00   0.00
 142        1.2824      1.2887    0.00   0.00
 143        6.8933     11.9101    0.00   0.00
 144        1.3627      1.3544    0.00   0.00
 145        8.8396      5.4646    0.00   0.00
 146        7.0413      6.2862    1.00   0.00
 147        7.1644      1.2181    0.00   0.00
 148        1.8601      1.5715    0.00   0.00
 149       11.8630      2.6571    0.00   0.00
 150        2.1093      2.3159    0.00   0.00
 151        1.3916     13.8090    0.00   0.00
 152       15.5817      4.4203    0.00   0.00
 153        1.4463      4.0339    0.00   0.00
 154        6.7894      4.7014    0.00   0.00
 155       11.2494      1.7237    0.00   0.00
 156        1.1336      6.0562    0.00   0.00
 157        2.0186      7.1635    0.00   0.00
 158        8.5939      4.4754    0.00   0.00
 159        9.4361      2.6604    0.00   0.00
 160        1.8664      1.5614    0.00   0.00
 161        3.2409      1.9696    0.00   0.00
 162        2.2100     10.8725    0.00   0.00
 163        1.5322     18.1056    0.00   0.00
 164        3.3116      7.2113    0.00   0.00
 165        1.7730      2.2194    0.00   0.00
 166        5.6633      2.2622    0.00   0.00
 167        2.5842     11.7911    0.00   0.00
 168        2.9865      8.2423    0.00   0.00
 169        1.0889      4.7600    0.00   0.00
 170        3.3506      2.5776    0.00   0.00
 171        7.5444     15.3495    0.00   0.00
 172       14.3945     10.5234    0.00   0.00
 173        2.6402      3.4131    0.00   0.00
 174        1.2877      8.0031    0.00   0.00
 175        1.9476      8.6283    0.00   0.00
 176        1.3967      3.0939    0.00   0.00
 177        2.1509      1.4903    0.00   0.00
 178        1.0898      6.2932    0.00   0.00
 179        2.3335      5.2598    0.00   0.00
 180        3.4296      1.1365    0.00   0.00
 181        4.8024     14.3339    0.00   0.00
 182        3.8721     11.0531    0.00   0.00
 183       11.8889      5.2158    0.00   0.00
 184       12.9949     12.0293    0.00   0.00
 185        1.2956      6.8721    0.00   0.00
 186        2.3438      1.6616    0.00   0.00
 187        6.3914      2.0267    0.00   0.00
 188        7.8423      1.8983    0.00   0.00
 189        1.1228      6.8231    0.00   0.00
 190        2.6028      3.7366    0.00   0.00
 191        4.3232     17.4505    0.00   0.00
 192       12.4798      7.6395    0.00   0.00
 193        2.1533      6.3143    0.00   0.00
 194        2.9129      3.9724    0.00   0.00
 195        7.2655      3.9319    0.00   0.00
 196        4.9000      6.0178    0.00   0.00
 197        2.0526     17.1561    0.00   0.00
 198        2.8678      2.1088    0.00   0.00
 199        5.4272      1.3373    0.00   0.00
 200       17.9553      1.1343    0.00   0.00
 201       15.3070      1.8392    0.00   0.00
 202        1.2323      7.5278    0.00   0.00
 203        1.6577      7.4771    0.00   0.00
 204        1.5808     11.5917    0.00   0.00
 205        3.4232      1.6763    0.00   0.00
 206        1.7807     10.7404    0.00   0.00
 207        1.4950      2.4239    0.00   0.00
 208        4.9080     12.3719    0.00   0.00
 209        1.1964      4.4078    0.00   0.00
 210        2.0789      1.8409    0.00   0.00
 211        3.6418      5.1015    0.00   0.00
 212        2.7721      2.1772    0.00   0.00
 213        4.8544      1.9995    0.00   0.00
 214        3.2378      6.1471    0.00   0.00
 215        6.8948      1.0083    0.00   0.00
 216        4.3778      1.8557    0.00   0.00
 217        2.0095      6.3096    0.00   0.00
 218        5.2412      3.7864    0.00   0.00
 219        1.8662      6.2979    0.00   0.00
 220        3.5821      1.3854    0.00   0.00
 221        1.2262      5.4889    0.00   0.00
 222        9.0370     12.7360    0.00   0.00
 223        4.8580     15.6436    0.00   0.00
 224        2.3328      7.6946    0.00   0.00
 225        1.5563      2.2788    0.00   0.00
 226        1.5943      2.0894    0.00   0.00
 227        9.2978      7.1827    0.00   0.00
 228        7.0715      6.9403    1.00   1.00
 229        5.3815      1.4681    0.00   0.00
 230        8.8570      1.6621    0.00   0.00
 231        2.4383      1.0844    0.00   0.00
 232        2.0706      4.3005    0.00   0.00
 233        1.7266      1.3484    0.00   0.00
 234        9.6512      3.3320    0.00   0.00
 235       14.9229      4.8731    0.00   0.00
 236        4.7797      7.3124    0.00   0.00
 237        5.8590      1.1228    0.00   0.00
 238       11.1746      2.5148    0.00   0.00
 239        8.0467      2.3023    0.00   0.00
 240        1.1272      4.1620    0.00   0.00
 241        7.2609      1.9847    0.00   0.00
 242        3.3887      3.0445    0.00   0.00
 243       16.4539      5.2649    0.00   0.00
 244        4.1087      1.6375    0.00   0.00
 245        6.9231      4.9149    1.00   0.00
 246        9.5671      1.7184    0.00   0.00
 247        2.5275      1.4082    0.00   0.00
 248        3.2910     10.5692    0.00   0.00
 249        4.6540      7.3275    0.00   0.00
 250        1.3337      1.2367    0.00   0.00
 251        1.5074      4.4318    0.00   0.00
 252        3.5813      5.9470    0.00   0.00
 253        1.4080      1.9305    0.00   0.00
 254        1.7038      5.5309    0.00   0.00
 255        1.7611      2.6611    0.00   0.00
 256        8.3205      1.0524    0.00   0.00
 257        1.9742      1.2956    0.00   0.00
 258       13.4606      2.3617    0.00   0.00
 259       12.1000      4.3743    0.00   0.00
 260        2.0339      1.9906    0.00   0.00
 261        1.2594      1.4141    0.00   0.00
 262        1.7396      1.5750    0.00   0.00
 263        1.7851      2.6287    0.00   0.00
 264        2.1826      1.3858    0.00   0.00
 265        4.3076     14.8111    0.00   0.00
 266        7.7292      1.6220    0.00   0.00
 267        1.4738      5.1535    0.00   0.00
 268        7.1157      2.5915    0.00   0.00
 269        4.8730      1.0995    0.00   0.00
 270        1.1991      8.4532    0.00   0.00
 271        6.0686      1.2366    0.00   0.00
 272        7.3509      7.6429    0.00   0.00
 273        4.2174      3.1969    0.00   0.00
 274        6.8346      7.1708    0.00   0.00
 275        2.5991      7.9814    0.00   0.00
 276        2.3053      3.4667    0.00   0.00
 277        3.9805     15.2540    0.00   0.00
 278        1.1526      6.5088    0.00   0.00
 279        2.9832      3.3837    0.00   0.00
 280        4.3442      2.5923    0.00   0.00
 281        1.4239      3.5958    0.00   0.00
 282        7.6949      2.7380    0.00   0.00
 283        3.0001      6.4638    0.00   0.00
 284        1.0797      1.1979    0.00   0.00
 285        2.0031      7.7715    0.00   0.00
 286        4.4444      7.1184    0.00   0.00
 287        1.3195      2.9959    0.00   0.00
 288        7.5097      3.6923    0.00   0.00
 289        4.7404      2.1702    0.00   0.00
 290        1.6123      6.3501    0.00   0.00
 291        2.5720      8.2992    0.00   0.00
 292        5.3838      2.2263    0.00   0.00
 293        1.4236      1.0610    0.00   0.00
 294        2.2807      1.4819    0.00   0.00
 295        1.4414     13.4164    0.00   0.00
 296        1.5064      1.5291    0.00   0.00
 297        2.9066     12.0643    0.00   0.00
 298        1.5020     11.6968    0.00   0.00
 299        1.6745      1.3875    0.00   0.00
 300        1.2773      2.3113    0.00   0.00
 301        1.9202     14.7157    0.00   0.00
 302        8.0570      1.7644    0.00   0.00
 303        3.0366      2.2538    0.00   0.00
 304        9.1670      2.4568    0.00   0.00
 305        1.4781      2.4416    0.00   0.00
 306        4.8323      2.3571    0.00   0.00
 307        1.0640      2.7147    0.00   0.00
 308        1.2762     10.7131    0.00   0.00
 309        1.2962      1.1051    0.00   0.00
 310        8.5940      4.0202    0.00   0.00
 311        1.2104      3.4484    0.00   0.00
 312        2.3384      1.4510    0.00   0.00
 313        1.5895      1.0533    0.00   0.00
 314        7.5377      1.3151    0.00   0.00
 315        2.1986      2.1050    0.00   0.00
 316        2.4800      1.2551    0.00   0.00
 317        3.3680      1.3982    0.00   0.00
 318        2.4624      5.5935    0.00   0.00
 319        2.4461      9.1916    0.00   0.00
 320        2.8044      8.5086    0.00   0.00
 321        5.3923      1.3274    0.00   0.00
 322        2.3965      3.0493    0.00   0.00
 323        2.8310      1.5122    0.00   0.00
 324        1.5579      9.0807    0.00   0.00
 325        1.4098      1.0995    0.00   0.00
 326        2.2129      5.2766    0.00   0.00
 327        1.6867      1.2051    0.00   0.00
 328        1.1073      1.8231    0.00   0.00
 329        1.1283      1.3169    0.00   0.00
 330        7.0384     10.1214    1.00   0.00
 331        2.9674      7.9742    0.00   0.00
 332        1.2765      6.4947    0.00   0.00
 333       10.9643      3.4940    0.00   0.00
 334        1.4686      7.9628    0.00   0.00
 335        1.4325      8.3926    0.00   0.00
 336        1.4996      2.6879    0.00   0.00
 337       13.1066      3.2170    0.00   0.00
 338        9.2079      1.5739    0.00   0.00
 339        3.5489      9.1857    0.00   0.00
 340        1.3001      6.0927    0.00   0.00
 341        3.4360      7.7744    0.00   0.00
 342        1.2115      1.5514    0.00   0.00
 343        1.4585      1.3079    0.00   0.00
 344        1.3381      1.2850    0.00   0.00
 345        1.7425     11.5367    0.00   0.00
 346        9.5939      1.5457    0.00   0.00
 347        2.9309      3.2811    0.00   0.00
 348        4.4888      1.1870    0.00   0.00
 349        1.8008      8.9041    0.00   0.00
 350        1.8093      5.0470    0.00   0.00
 351        5.3825      2.6487    0.00   0.00
 352        4.2324      9.5102    0.00   0.00
 353        1.3659      1.5234    0.00   0.00
 354        3.2702     11.3000    0.00   0.00
 355        1.6509      1.1309    0.00   0.00
 356        6.8950      1.2896    0.00   0.00
 357        1.4131      5.6636    0.00   0.00
 358        2.4968      3.3389    0.00   0.00
 359        4.5834      4.2999    0.00   0.00
 360       10.6288      1.1015    0.00   0.00
 361       13.6852      1.4202    0.00   0.00
 362       14.6934      4.0096    0.00   0.00
 363        9.0712      1.0664    0.00   0.00
 364        3.2560      1.8056    0.00   0.00
 365       11.0717      5.9527    0.00   0.00
 366        3.7950      2.0557    0.00   0.00
 367        3.2176      2.6332    0.00   0.00
 368        3.5014      5.9146    0.00   0.00
 369        1.0780      1.2762    0.00   0.00
 370        5.0696      6.6172    0.00   0.00
 371        8.4672      2.8041    0.00   0.00
 372        1.1749      1.1362    0.00   0.00
 373        1.0535      5.2011    0.00   0.00
 374        9.8733      1.0278    0.00   0.00
 375        7.9166      3.0042    0.00   0.00
 376        1.6845     14.0511    0.00   0.00
 377        9.7623      5.7508    0.00   0.00
 378        1.1142      9.4934    0.00   0.00
 379        3.0260      1.8319    0.00   0.00
 380        1.1798     12.6749    0.00   0.00
 381        2.4456      4.9880    0.00   0.00
 382        1.0480      1.9692    0.00   0.00
 383        2.8528      4.7518    0.00   0.00
 384        8.0540     17.6534    0.00   0.00
 385        3.7535      3.2523    0.00   0.00
 386        3.0728      8.3709    0.00   0.00
 387        1.1068      1.3089    0.00   0.00
 388        4.6542      4.1228    0.00   0.00
 389        2.3804      1.5372    0.00   0.00
 390        1.6328      6.9699    0.00   1.00
 391        3.8773     12.9795    0.00   0.00
 392       19.8649      3.4930    0.00   0.00
 393        7.6781      1.7105    0.00   0.00
 394        1.9532      1.0829    0.00   0.00
 395        7.3123      2.7115    0.00   0.00
 396        1.8670      9.9871    0.00   0.00
 397        9.4769      1.7512    0.00   0.00
 398        1.0855      1.2053    0.00   0.00
 399        2.8816      1.6166    0.00   0.00
 400       16.3380      2.7521    0.00   0.00
 401        2.8480      2.8765    0.00   0.00
 402        8.7444      6.9460    0.00   1.00
 403       11.6329      2.9941    0.00   0.00
 404        1.2000      6.6454    0.00   0.00
 405       14.3678      6.7462    0.00   0.00
 406       12.2553      2.8742    0.00   0.00
 407        1.7845      3.6483    0.00   0.00
 408        1.8737      9.8226    0.00   0.00
 409        1.7280      2.0404    0.00   0.00
 410        2.7027      1.0937    0.00   0.00
 411        3.9687      3.8183    0.00   0.00
 412        2.0426      1.1041    0.00   0.00
 413       12.7536      3.5549    0.00   0.00
 414       11.5421      1.1459    0.00   0.00
 415       10.9213     11.7851    0.00   0.00
 416        7.4533      1.4099    0.00   0.00
 417        1.2464      1.3222    0.00   0.00
 418        1.7634      1.2474    0.00   0.00
 419       10.7756     11.2774    0.00   0.00
 420        4.7610      3.5941    0.00   0.00
 421        1.5510      1.1478    0.00   0.00
 422       11.5827      1.2577    0.00   0.00
 423        2.4902      6.0258    0.00   0.00
 424        3.7925      9.0021    0.00   0.00
 425        1.3301      4.7743    0.00   0.00
 426        2.3061      2.3911    0.00   0.00
 427       10.9735      1.7742    0.00   0.00
 428        5.7544      1.6058    0.00   0.00
 429        7.4799      9.4560    0.00   0.00
 430       12.3201     12.2562    0.00   0.00
 431        2.9208      1.1598    0.00   0.00
 432        1.0891      1.3471    0.00   0.00
 433        3.7544      5.9199    0.00   0.00
 434        1.8806      1.8163    0.00   0.00
 435        7.2940      2.1637    0.00   0.00
 436        1.6843     10.0915    0.00   0.00
 437        1.0902      1.4724    0.00   0.00
 438        8.1780      6.9938    0.00   1.00
 439        1.3176      1.4453    0.00   0.00
 440        1.8923     10.7068    0.00   0.00
 441        1.3041      1.3549    0.00   0.00
 442        1.6796      1.3035    0.00   0.00
 443        1.1814      1.2599    0.00   0.00
 444        2.5804      1.3988    0.00   0.00
 445        2.1000      3.0281    0.00   0.00
 446        1.4535      5.1654    0.00   0.00
 447        8.4226      1.6620    0.00   0.00
 448        1.7863      1.3793    0.00   0.00
 449        1.8062      8.7212    0.00   0.00
 450        4.2942      1.0836    0.00   0.00
 451        1.0862      2.2297    0.00   0.00
 452        3.0494      4.6839    0.00   0.00
 453        1.0055      1.8504    0.00   0.00
 454        1.3841      6.3752    0.00   0.00
 455        3.5672      3.5180    0.00   0.00
 456        1.1659      2.6740    0.00   0.00
 457        2.9304      1.0293    0.00   0.00
 458       20.5216      2.1685    0.00   0.00
 459        8.4470      9.1887    0.00   0.00
 460        4.0869      3.0085    0.00   0.00
 461       10.1794      7.4889    0.00   0.00
 462        4.6782      3.8366    0.00   0.00
 463        4.7287     14.3017    0.00   0.00
 464        2.0717      9.9172    0.00   0.00
 465        5.7820      2.2905    0.00   0.00
 466        5.1294     12.1247    0.00   0.00
 467        3.4764      8.3254    0.00   0.00
 468        2.1297      3.5623    0.00   0.00
 469        1.5106      1.0362    0.00   0.00
 470        1.5273      1.4963    0.00   0.00
 471        2.7843      1.9457    0.00   0.00
 472        8.9436      1.5409    0.00   0.00
 473        4.5563      1.3483    0.00   0.00
 474        7.1609      1.3697    0.00   0.00
 475        3.9995     10.9321    0.00   0.00
 476        2.5568      1.2233    0.00   0.00
 477        1.8942      5.6321    0.00   0.00
 478        1.8457     14.2857    0.00   0.00
 479        7.5003      4.9693    0.00   0.00
 480       14.8737      3.6317    0.00   0.00
 481        3.8057      1.3773    0.00   0.00
 482        5.5023      6.3161    0.00   0.00
 483        7.3905      1.1606    0.00   0.00
 484        2.7007     12.0503    0.00   0.00
 485        4.0512      5.5472    0.00   0.00
 486        1.8914      3.9455    0.00   0.00
 487        2.6447     12.9671    0.00   0.00
 488       11.2452      3.1265    0.00   0.00
 489       12.1002      1.7219    0.00   0.00
 490        4.7065      3.7660    0.00   0.00
 491        6.1819      6.9541    0.00   1.00
 492        2.0844      7.3531    0.00   0.00
 493        2.0711      1.8124    0.00   0.00
 494        1.8210      4.5735    0.00   0.00
 495        1.0615      3.7441    0.00   0.00
 496        6.2738      1.9442    0.00   0.00
 497        1.0582      7.4412    0.00   0.00
 498        1.8298      1.9405    0.00   0.00
 499        1.3970     11.5588    0.00   0.00
 500        7.1602      4.0251    0.00   0.00
 501        1.9133      2.9057    0.00   0.00
 502        3.5968      1.5183    0.00   0.00
 503        2.0211      1.3938    0.00   0.00
 504        1.5025      4.2530    0.00   0.00
 505        3.7828      2.7872    0.00   0.00
 506        4.9401      3.5004    0.00   0.00
 507       11.4938      2.1680    0.00   0.00
 508        3.4774     12.2972    0.00   0.00
 509       11.1826      1.3609    0.00   0.00
 510        4.0746      4.3669    0.00   0.00
 511        1.7994      2.5100    0.00   0.00
 512        8.6305      3.3409    0.00   0.00
 513        1.1631      1.7482    0.00   0.00
 514        1.0913      7.2572    0.00   0.00
 515       16.5779      7.2737    0.00   0.00
 516        9.1474      2.0978    0.00   0.00
 517        1.8192      1.2624    0.00   0.00
 518        8.8023      7.3280    0.00   0.00
 519        8.0038      5.2462    0.00   0.00
 520        6.9142      1.7123    1.00   0.00
 521        5.7370      1.4786    0.00   0.00
 522        8.3661      9.5483    0.00   0.00
 523        1.0475      4.5378    0.00   0.00
 524        1.3491      1.6420    0.00   0.00
 525        1.1085      1.4697    0.00   0.00
 526        1.2656      8.2375    0.00   0.00
 527        2.9592      9.1616    0.00   0.00
 528        1.2725      1.3032    0.00   0.00
 529        6.7605      3.1763    0.00   0.00
 530        7.9103      5.8552    0.00   0.00
 531       12.3437      1.0207    0.00   0.00
 532        3.2703      2.9998    0.00   0.00
 533        2.8154      6.7644    0.00   0.00
 534        2.6443      3.5389    0.00   0.00
 535        3.1445      1.2923    0.00   0.00
 536       16.8443      9.1984    0.00   0.00
 537        3.0476     11.5929    0.00   0.00
 538        7.7049     11.0469    0.00   0.00
 539        2.0355      1.1124    0.00   0.00
 540        9.6221      2.1236    0.00   0.00
 541        9.1038      4.0056    0.00   0.00
 542        2.1037      4.3435    0.00   0.00
 543        1.3521      4.4246    0.00   0.00
 544        1.1404      1.4028    0.00   0.00
 545        1.9836     12.7204    0.00   0.00
 546        5.8701      1.1323    0.00   0.00
 547        2.2604      1.7049    0.00   0.00
 548        7.4130     22.5401    0.00   0.00
 549        4.3289      1.2135    0.00   0.00
 550       12.3985      6.5817    0.00   0.00
 551        1.2464     11.5090    0.00   0.00
 552        2.3204      1.0305    0.00   0.00
 553        3.8921      9.2862    0.00   0.00
 554        3.9893      1.1608    0.00   0.00
 555        6.3719      1.1113    0.00   0.00
 556        7.6766      8.3376    0.00   0.00
 557       10.1557      2.4012    0.00   0.00
 558       10.4824      4.1398    0.00   0.00
 559        1.6235      5.4435    0.00   0.00
 560        1.9559      1.5136    0.00   0.00
 561       11.6212      1.8557    0.00   0.00
 562        3.0218     13.0462    0.00   0.00
 563        1.5564      9.9086    0.00   0.00
 564        2.6464      8.4531    0.00   0.00
 565        2.8056      2.4063    0.00   0.00
 566        1.4262      2.1427    0.00   0.00
 567        5.0665      1.7609    0.00   0.00
 568        1.7264      5.1943    0.00   0.00
 569        1.8937      1.1019    0.00   0.00
 570        7.8318      3.8447    0.00   0.00
 571        1.5576      1.9754    0.00   0.00
 572        3.0662     12.0012    0.00   0.00
 573        5.5752      1.5269    0.00   0.00
 574        1.4424      9.9685    0.00   0.00
 575        2.9175     12.2337    0.00   0.00
 576        6.1345     10.4264    0.00   0.00
 577        7.2033      7.7755    0.00   0.00
 578       10.6555      2.3002    0.00   0.00
 579        1.5569     10.7695    0.00   0.00
 580       10.7444      1.2158    0.00   0.00
 581        1.4785      3.0783    0.00   0.00
 582        2.5335      2.2481    0.00   0.00
 583        1.7083      8.9154    0.00   0.00
 584        5.7646      1.5853    0.00   0.00
 585        6.6374      1.3086    0.00   0.00
 586        6.8153      2.2118    0.00   0.00
 587        3.0868      3.4168    0.00   0.00
 588        5.8196      5.1447    0.00   0.00
 589        7.8194      5.0879    0.00   0.00
 590        2.2925      4.2785    0.00   0.00
 591        1.3279      1.5332    0.00   0.00
 592        1.3007      9.0913    0.00   0.00
 593       12.3813      3.5866    0.00   0.00
 594        1.1570      5.8985    0.00   0.00
 595        1.1737      1.1489    0.00   0.00
 596        1.5387      1.2049    0.00   0.00
 597        4.5149      1.8917    0.00   0.00
 598        1.0610      7.1548    0.00   0.00
 599        1.1956     14.4410    0.00   0.00
 600        7.9497      3.0651    0.00   0.00
 601       12.3169      5.7998    0.00   0.00
 602        4.4265      1.9928    0.00   0.00
 603        3.0859      2.2866    0.00   0.00
 604        1.2980      2.4955    0.00   0.00
 605        2.4811      8.9339    0.00   0.00
 606       11.9179     12.0080    0.00   0.00
 607        1.9962     10.1633    0.00   0.00
 608        3.7943     12.5264    0.00   0.00
 609        8.6785      1.6785    0.00   0.00
 610       15.4053      1.1825    0.00   0.00
 611       14.4804      1.3567    0.00   0.00
 612       10.1500      5.0272    0.00   0.00
 613        1.8604      8.0054    0.00   0.00
 614        1.6958      6.9236    0.00   1.00
 615       11.2733     11.5131    0.00   0.00
 616        1.5819      3.7028    0.00   0.00
 617        2.0822      3.2970    0.00   0.00
 618        4.8821     12.0664    0.00   0.00
 619        1.1162      2.3951    0.00   0.00
 620        2.5688      1.7866    0.00   0.00
 621        1.4277     16.4037    0.00   0.00
 622        5.8066     10.0145    0.00   0.00
 623        3.2382     13.9538    0.00   0.00
 624        3.6915      2.2332    0.00   0.00
 625        1.0413      1.5494    0.00   0.00
 626        3.2552      1.7984    0.00   0.00
 627        2.6500      4.2716    0.00   0.00
 628        2.5043      1.0533    0.00   0.00
 629        2.6715      1.0328    0.00   0.00
 630        1.0049      8.7722    0.00   0.00
 631        3.7054     10.2995    0.00   0.00
 632        2.7877      2.1086    0.00   0.00
 633        1.4539      6.9924    0.00   1.00
 634       13.2534      1.3617    0.00   0.00
 635        5.1649      2.6608    0.00   0.00
 636        1.5226      4.0540    0.00   0.00
 637        1.1792      1.7644    0.00   0.00
 638        6.7265      7.4747    0.00   0.00
 639        2.2119      4.6583    0.00   0.00
 640        1.2214      6.3072    0.00   0.00
 641       11.6451     10.4318    0.00   0.00
 642        3.0345      1.6976    0.00   0.00
 643        1.4787      7.9214    0.00   0.00
 644        6.3902      6.4480    0.00   0.00
 645        7.1523      1.7884    0.00   0.00
 646        5.9760      1.1131    0.00   0.00
 647        1.4430     11.9907    0.00   0.00
 648        2.6512      8.2943    0.00   0.00
 649        5.4019      9.3657    0.00   0.00
 650        2.0603     10.5324    0.00   0.00
 651        7.5453     10.8632    0.00   0.00
 652        1.7130     12.3115    0.00   0.00
 653        2.0716      6.5425    0.00   0.00
 654        2.6834      9.9871    0.00   0.00
 655        2.1600      3.3301    0.00   0.00
 656        4.6888      2.6881    0.00   0.00
 657        1.2849      5.7292    0.00   0.00
 658        4.6708      5.3111    0.00   0.00
 659        3.6886      6.9036    0.00   1.00
 660        5.6946     11.0098    0.00   0.00
 661       10.0699      9.9795    0.00   0.00
 662        4.3860      2.5874    0.00   0.00
 663        9.9774      3.2912    0.00   0.00
 664        1.0419      2.9476    0.00   0.00
 665        2.1990      3.1457    0.00   0.00
 666        1.3105      1.6545    0.00   0.00
 667       10.5665      1.1548    0.00   0.00
 668        4.0379      3.1474    0.00   0.00
 669        1.9524      2.7722    0.00   0.00
 670        1.0754      4.0059    0.00   0.00
 671        9.4992      3.2991    0.00   0.00
 672        1.2901      4.1336    0.00   0.00
