Generated by VASPKIT code               
   1.00000000000000     
    11.5982000000000003    0.0000000000000000    0.0000000000000000
    -5.7990999999999975   10.0443358381726764    0.0000000000000000
     0.0000000000000000    0.0000000000000000   21.0482000000000014
  Ir              Ce              O             
     6    21    63
Selective dynamics
Direct
  0.0121698379989580  0.9878301620010489  0.4775777481537149   T   T   T
  0.7458422712419581  0.9795486970299782  0.4495145842213811   T   T   T
  0.0204513029700218  0.2541577287580418  0.4495145842213811   T   T   T
  0.3443975529900513  0.3021834614477003  0.4423154781105734   T   T   T
  0.3146565084064950  0.6853434915935047  0.4660084019255440   T   T   T
  0.6978165385522925  0.6556024470099489  0.4423154781105734   T   T   T
  0.2189339130269819  0.1050212934541216  0.3072195829773925   T   T   T
  0.1111099999999965  0.2222200000000001  0.1599900000000005   F   F   F
  0.3328416921262749  0.0044650899723058  0.4639162848105208   T   T   T
  0.5545566946757072  0.1129581370513299  0.3185677309294334   T   T   T
  0.4444400000000002  0.2222200000000001  0.1599900000000005   F   F   F
  0.8886916764817466  0.1113083235182532  0.3071303687162934   T   T   T
  0.7777799999999999  0.2222200000000001  0.1599900000000005   F   F   F
  0.2182932626292455  0.4375365851457335  0.3132708553821248   T   T   T
  0.1111099999999965  0.5555599999999998  0.1599900000000005   F   F   F
  0.5564067861743385  0.4435932138256689  0.3080475088696131   T   T   T
  0.4444400000000002  0.5555599999999998  0.1599900000000005   F   F   F
  0.6599842807329279  0.3400157192670722  0.4627772774402710   T   T   T
  0.8870418629486700  0.4454433053242927  0.3185677309294334   T   T   T
  0.7777799999999999  0.5555599999999998  0.1599900000000005   F   F   F
  0.9955349100276943  0.6671583078737322  0.4639162848105208   T   T   T
  0.2206679200386140  0.7793320799613861  0.3124006147208154   T   T   T
  0.1111099999999965  0.8888900000000035  0.1599900000000005   F   F   F
  0.5624634148542667  0.7817067373707544  0.3132708553821248   T   T   T
  0.4444400000000002  0.8888900000000035  0.1599900000000005   F   F   F
  0.8949787065458712  0.7810660869730179  0.3072195829773925   T   T   T
  0.7777799999999999  0.8888900000000035  0.1599900000000005   F   F   F
  0.0000000000000000  0.0000000000000000  0.1225000000000023   F   F   F
  0.1191252728976669  0.2351878382523097  0.2746221248015287   T   T   T
  0.1937723465864057  0.1023789946800217  0.4283486501499702   T   T   T
  0.1111099999999965  0.2222200000000001  0.0475100000000026   F   F   F
  0.0678088773592365  0.1663168581375988  0.5143933209719610   T   T   T
  0.0055702637180254  0.9944297362819744  0.3256358327608915   T   T   T
  0.2222200000000001  0.1111099999999965  0.1974799999999988   F   F   F
  0.3333299999999966  0.0000000000000000  0.1225000000000023   F   F   F
  0.4457808155756668  0.2210542892815365  0.2749426825012888   T   T   T
  0.5451590941534057  0.1253613024623370  0.4288908208338968   T   T   T
  0.4444400000000002  0.2222200000000001  0.0475100000000026   F   F   F
  0.4159520905259969  0.2400869581418230  0.5018977780009259   T   T   T
  0.3283674021752498  0.9999882112639590  0.3512833141668357   T   T   T
  0.5555599999999998  0.1111099999999965  0.1974799999999988   F   F   F
  0.6666700000000034  0.0000000000000000  0.1225000000000023   F   F   F
  0.7730523708742935  0.2269476291257065  0.2807707553198756   T   T   T
  0.9303235372037673  0.0696764627962256  0.4181019551042061   T   T   T
  0.7777799999999999  0.2222200000000001  0.0475100000000026   F   F   F
  0.8279944598778302  0.1720055401221699  0.4703838597173954   T   T   T
  0.6637602231481214  0.9946721949012898  0.3647457609598844   T   T   T
  0.8888899999999964  0.1111099999999965  0.1974799999999988   F   F   F
  0.0000000000000000  0.3333299999999966  0.1225000000000023   F   F   F
  0.1182075165764852  0.5557199959911960  0.2820655393578846   T   T   T
  0.2085142872429473  0.3614373298055772  0.4310936156171414   T   T   T
  0.1111099999999965  0.5555599999999998  0.0475100000000026   F   F   F
  0.1551435582641450  0.5818269836135151  0.5027298114175325   T   T   T
  0.0053278050987034  0.3362397768518787  0.3647457609598844   T   T   T
  0.2222200000000001  0.4444400000000002  0.1974799999999988   F   F   F
  0.3333299999999966  0.3333299999999966  0.1225000000000023   F   F   F
  0.4399323219168964  0.5600676780831035  0.2799152607105635   T   T   T
  0.5350103650430726  0.4649896349569272  0.4297223499294871   T   T   T
  0.4444400000000002  0.5555599999999998  0.0475100000000026   F   F   F
  0.3983292856008380  0.6016707143991619  0.4950498578715970   T   T   T
  0.3361472890173566  0.3275067789062306  0.3492140728617075   T   T   T
  0.5555599999999998  0.4444400000000002  0.1974799999999988   F   F   F
  0.6666700000000034  0.3333299999999966  0.1225000000000023   F   F   F
  0.7789457107184635  0.5542191844243330  0.2749426825012888   T   T   T
  0.8746386975376557  0.4548409058465943  0.4288908208338968   T   T   T
  0.7777799999999999  0.5555599999999998  0.0475100000000026   F   F   F
  0.7599130418581769  0.5840479094740030  0.5018977780009259   T   T   T
  0.6594930773979277  0.3405069226020722  0.3526006838637017   T   T   T
  0.8888899999999964  0.4444400000000002  0.1974799999999988   F   F   F
  0.0000000000000000  0.6666700000000034  0.1225000000000023   F   F   F
  0.1183142800020353  0.8816857199979644  0.2721187454556074   T   T   T
  0.2185461262566939  0.7814538737433060  0.4267144791587392   T   T   T
  0.1111099999999965  0.8888900000000035  0.0475100000000026   F   F   F
  0.0950582416281047  0.9049417583718955  0.5177110018814467   T   T   T
  0.0000117887360409  0.6716325978247499  0.3512833141668357   T   T   T
  0.2222200000000001  0.7777799999999999  0.1974799999999988   F   F   F
  0.3333299999999966  0.6666700000000034  0.1225000000000023   F   F   F
  0.4442800040088037  0.8817924834235148  0.2820655393578846   T   T   T
  0.6385626701944229  0.7914857127570526  0.4310936156171414   T   T   T
  0.4444400000000002  0.8888900000000035  0.0475100000000026   F   F   F
  0.4181730163864850  0.8448564417358547  0.5027298114175325   T   T   T
  0.3391329402156801  0.6608670597843200  0.3787829035659264   T   T   T
  0.5555599999999998  0.7777799999999999  0.1974799999999988   F   F   F
  0.6666699999999963  0.6666700000000034  0.1225000000000023   F   F   F
  0.7648121617476903  0.8808747271023329  0.2746221248015287   T   T   T
  0.8976210053199711  0.8062276534135944  0.4283486501499702   T   T   T
  0.7777799999999999  0.8888900000000035  0.0475100000000026   F   F   F
  0.8336831418624014  0.9321911226407634  0.5143933209719610   T   T   T
  0.6724932210937621  0.6638527109826432  0.3492140728617075   T   T   T
  0.8888899999999964  0.7777799999999999  0.1974799999999988   F   F   F
 
  0.00000000E+00  0.00000000E+00  0.00000000E+00
  0.00000000E+00  0.00000000E+00  0.00000000E+00
  0.00000000E+00  0.00000000E+00  0.00000000E+00
  0.00000000E+00  0.00000000E+00  0.00000000E+00
  0.00000000E+00  0.00000000E+00  0.00000000E+00
  0.00000000E+00  0.00000000E+00  0.00000000E+00
  0.00000000E+00  0.00000000E+00  0.00000000E+00
  0.00000000E+00  0.00000000E+00  0.00000000E+00
  0.00000000E+00  0.00000000E+00  0.00000000E+00
  0.00000000E+00  0.00000000E+00  0.00000000E+00
  0.00000000E+00  0.00000000E+00  0.00000000E+00
  0.00000000E+00  0.00000000E+00  0.00000000E+00
  0.00000000E+00  0.00000000E+00  0.00000000E+00
  0.00000000E+00  0.00000000E+00  0.00000000E+00
  0.00000000E+00  0.00000000E+00  0.00000000E+00
  0.00000000E+00  0.00000000E+00  0.00000000E+00
  0.00000000E+00  0.00000000E+00  0.00000000E+00
  0.00000000E+00  0.00000000E+00  0.00000000E+00
  0.00000000E+00  0.00000000E+00  0.00000000E+00
  0.00000000E+00  0.00000000E+00  0.00000000E+00
  0.00000000E+00  0.00000000E+00  0.00000000E+00
  0.00000000E+00  0.00000000E+00  0.00000000E+00
  0.00000000E+00  0.00000000E+00  0.00000000E+00
  0.00000000E+00  0.00000000E+00  0.00000000E+00
  0.00000000E+00  0.00000000E+00  0.00000000E+00
  0.00000000E+00  0.00000000E+00  0.00000000E+00
  0.00000000E+00  0.00000000E+00  0.00000000E+00
  0.00000000E+00  0.00000000E+00  0.00000000E+00
  0.00000000E+00  0.00000000E+00  0.00000000E+00
  0.00000000E+00  0.00000000E+00  0.00000000E+00
  0.00000000E+00  0.00000000E+00  0.00000000E+00
  0.00000000E+00  0.00000000E+00  0.00000000E+00
  0.00000000E+00  0.00000000E+00  0.00000000E+00
  0.00000000E+00  0.00000000E+00  0.00000000E+00
  0.00000000E+00  0.00000000E+00  0.00000000E+00
  0.00000000E+00  0.00000000E+00  0.00000000E+00
  0.00000000E+00  0.00000000E+00  0.00000000E+00
  0.00000000E+00  0.00000000E+00  0.00000000E+00
  0.00000000E+00  0.00000000E+00  0.00000000E+00
  0.00000000E+00  0.00000000E+00  0.00000000E+00
  0.00000000E+00  0.00000000E+00  0.00000000E+00
  0.00000000E+00  0.00000000E+00  0.00000000E+00
  0.00000000E+00  0.00000000E+00  0.00000000E+00
  0.00000000E+00  0.00000000E+00  0.00000000E+00
  0.00000000E+00  0.00000000E+00  0.00000000E+00
  0.00000000E+00  0.00000000E+00  0.00000000E+00
  0.00000000E+00  0.00000000E+00  0.00000000E+00
  0.00000000E+00  0.00000000E+00  0.00000000E+00
  0.00000000E+00  0.00000000E+00  0.00000000E+00
  0.00000000E+00  0.00000000E+00  0.00000000E+00
  0.00000000E+00  0.00000000E+00  0.00000000E+00
  0.00000000E+00  0.00000000E+00  0.00000000E+00
  0.00000000E+00  0.00000000E+00  0.00000000E+00
  0.00000000E+00  0.00000000E+00  0.00000000E+00
  0.00000000E+00  0.00000000E+00  0.00000000E+00
  0.00000000E+00  0.00000000E+00  0.00000000E+00
  0.00000000E+00  0.00000000E+00  0.00000000E+00
  0.00000000E+00  0.00000000E+00  0.00000000E+00
  0.00000000E+00  0.00000000E+00  0.00000000E+00
  0.00000000E+00  0.00000000E+00  0.00000000E+00
  0.00000000E+00  0.00000000E+00  0.00000000E+00
  0.00000000E+00  0.00000000E+00  0.00000000E+00
  0.00000000E+00  0.00000000E+00  0.00000000E+00
  0.00000000E+00  0.00000000E+00  0.00000000E+00
  0.00000000E+00  0.00000000E+00  0.00000000E+00
  0.00000000E+00  0.00000000E+00  0.00000000E+00
  0.00000000E+00  0.00000000E+00  0.00000000E+00
  0.00000000E+00  0.00000000E+00  0.00000000E+00
  0.00000000E+00  0.00000000E+00  0.00000000E+00
  0.00000000E+00  0.00000000E+00  0.00000000E+00
  0.00000000E+00  0.00000000E+00  0.00000000E+00
  0.00000000E+00  0.00000000E+00  0.00000000E+00
  0.00000000E+00  0.00000000E+00  0.00000000E+00
  0.00000000E+00  0.00000000E+00  0.00000000E+00
  0.00000000E+00  0.00000000E+00  0.00000000E+00
  0.00000000E+00  0.00000000E+00  0.00000000E+00
  0.00000000E+00  0.00000000E+00  0.00000000E+00
  0.00000000E+00  0.00000000E+00  0.00000000E+00
  0.00000000E+00  0.00000000E+00  0.00000000E+00
  0.00000000E+00  0.00000000E+00  0.00000000E+00
  0.00000000E+00  0.00000000E+00  0.00000000E+00
  0.00000000E+00  0.00000000E+00  0.00000000E+00
  0.00000000E+00  0.00000000E+00  0.00000000E+00
  0.00000000E+00  0.00000000E+00  0.00000000E+00
  0.00000000E+00  0.00000000E+00  0.00000000E+00
  0.00000000E+00  0.00000000E+00  0.00000000E+00
  0.00000000E+00  0.00000000E+00  0.00000000E+00
  0.00000000E+00  0.00000000E+00  0.00000000E+00
  0.00000000E+00  0.00000000E+00  0.00000000E+00
  0.00000000E+00  0.00000000E+00  0.00000000E+00
