Generated by VASPKIT code               
   1.00000000000000     
    11.5982000000000003    0.0000000000000000    0.0000000000000000
    -5.7990999999999975   10.0443358381726764    0.0000000000000000
     0.0000000000000000    0.0000000000000000   21.0482000000000014
  Ir              Ce              O             
     6    21    63
Selective dynamics
Direct
  0.0027722947907999  0.9972277052092003  0.4541343256644317   T   T   T
  0.6946852646752428  0.9798340994569451  0.4503380373428714   T   T   T
  0.0201659005430550  0.3053147353247572  0.4503380373428714   T   T   T
  0.3381703210932788  0.3360904697243671  0.4550394309785517   T   T   T
  0.3580274037242098  0.6419725962757904  0.4516908602421419   T   T   T
  0.6639095302756257  0.6618296789067214  0.4550394309785517   T   T   T
  0.2199897524053376  0.1136219741975014  0.3065238356336711   T   T   T
  0.1111099999999965  0.2222200000000001  0.1599900000000005   F   F   F
  0.3229797420203903  0.0096416851348091  0.4565359491733323   T   T   T
  0.5526394496755135  0.1137030275579332  0.3125940986214950   T   T   T
  0.4444400000000002  0.2222200000000001  0.1599900000000005   F   F   F
  0.8901144769767959  0.1098855230231972  0.3082444619766047   T   T   T
  0.7777799999999999  0.2222200000000001  0.1599900000000005   F   F   F
  0.2235739090871152  0.4427352139691652  0.3092120460026147   T   T   T
  0.1111099999999965  0.5555599999999998  0.1599900000000005   F   F   F
  0.5535966861993514  0.4464033138006488  0.3063851737396507   T   T   T
  0.4444400000000002  0.5555599999999998  0.1599900000000005   F   F   F
  0.6576849745619670  0.3423150254380329  0.4569404332224528   T   T   T
  0.8862969724420602  0.4473605503244866  0.3125940986214950   T   T   T
  0.7777799999999999  0.5555599999999998  0.1599900000000005   F   F   F
  0.9903583148651909  0.6770202579796101  0.4565359491733323   T   T   T
  0.2190450307247886  0.7809549692752117  0.3123317828445131   T   T   T
  0.1111099999999965  0.8888900000000035  0.1599900000000005   F   F   F
  0.5572647860308350  0.7764260909128849  0.3092120460026147   T   T   T
  0.4444400000000002  0.8888900000000035  0.1599900000000005   F   F   F
  0.8863780258024916  0.7800102475946625  0.3065238356336711   T   T   T
  0.7777799999999999  0.8888900000000035  0.1599900000000005   F   F   F
  0.0000000000000000  0.0000000000000000  0.1225000000000023   F   F   F
  0.1068738120440810  0.2269335471921037  0.2748689833447928   T   T   T
  0.2060730309054045  0.1234088990487801  0.4243106744177610   T   T   T
  0.1111099999999965  0.2222200000000001  0.0475100000000026   F   F   F
  0.1045738684637207  0.2281093512666185  0.4936424536387561   T   T   T
  0.0014209963678150  0.9985790036321853  0.3389944825039048   T   T   T
  0.2222200000000001  0.1111099999999965  0.1974799999999988   F   F   F
  0.3333299999999966  0.0000000000000000  0.1225000000000023   F   F   F
  0.4480965152797199  0.2200698960029610  0.2730010911279409   T   T   T
  0.5409246097475814  0.1240398966402642  0.4290809922078078   T   T   T
  0.4444400000000002  0.2222200000000001  0.0475100000000026   F   F   F
  0.4284488626884526  0.2410170550990967  0.4906822415392159   T   T   T
  0.3287815758976795  0.0069443787078307  0.3502944437070448   T   T   T
  0.5555599999999998  0.1111099999999965  0.1974799999999988   F   F   F
  0.6666700000000034  0.0000000000000000  0.1225000000000023   F   F   F
  0.7764939476606908  0.2235060523393095  0.2797651815317574   T   T   T
  0.9078585938975435  0.0921414061024492  0.4219002913770567   T   T   T
  0.7777799999999999  0.2222200000000001  0.0475100000000026   F   F   F
  0.8075279019259616  0.1924720980740383  0.4753081516225299   T   T   T
  0.6669355846740482  0.9987331068860658  0.3604094213976538   T   T   T
  0.8888899999999964  0.1111099999999965  0.1974799999999988   F   F   F
  0.0000000000000000  0.3333299999999966  0.1225000000000023   F   F   F
  0.1110060812771877  0.5572872469283404  0.2797955893421821   T   T   T
  0.2418073831598572  0.4269743135290817  0.4217358288793127   T   T   T
  0.1111099999999965  0.5555599999999998  0.0475100000000026   F   F   F
  0.1515249416037983  0.5382841076859833  0.4752673509775184   T   T   T
  0.0012668931139340  0.3330644153259522  0.3604094213976538   T   T   T
  0.2222200000000001  0.4444400000000002  0.1974799999999988   F   F   F
  0.3333299999999966  0.3333299999999966  0.1225000000000023   F   F   F
  0.4395700054925516  0.5604299945074483  0.2753046611211210   T   T   T
  0.5415914233385739  0.4584085766614261  0.4232413474815095   T   T   T
  0.4444400000000002  0.5555599999999998  0.0475100000000026   F   F   F
  0.4404903300776775  0.5595096699223223  0.4934897690665010   T   T   T
  0.3356009941739759  0.3307308667418765  0.3392090398158275   T   T   T
  0.5555599999999998  0.4444400000000002  0.1974799999999988   F   F   F
  0.6666700000000034  0.3333299999999966  0.1225000000000023   F   F   F
  0.7799301039970390  0.5519034847202804  0.2730010911279409   T   T   T
  0.8759601033597286  0.4590753902524188  0.4290809922078078   T   T   T
  0.7777799999999999  0.5555599999999998  0.0475100000000026   F   F   F
  0.7589829449009033  0.5715511373115475  0.4906822415392159   T   T   T
  0.6614039793927954  0.3385960206072042  0.3513136006105748   T   T   T
  0.8888899999999964  0.4444400000000002  0.1974799999999988   F   F   F
  0.0000000000000000  0.6666700000000034  0.1225000000000023   F   F   F
  0.1135780432864512  0.8864219567135492  0.2733104887999507   T   T   T
  0.2050324243412342  0.7949675756587657  0.4261847633447634   T   T   T
  0.1111099999999965  0.8888900000000035  0.0475100000000026   F   F   F
  0.0943369565993508  0.9056630434006491  0.4926413890980560   T   T   T
  0.9930556212921694  0.6712184241023202  0.3502944437070448   T   T   T
  0.2222200000000001  0.7777799999999999  0.1974799999999988   F   F   F
  0.3333299999999966  0.6666700000000034  0.1225000000000023   F   F   F
  0.4427127530716596  0.8889939187228120  0.2797955893421821   T   T   T
  0.5730256864709182  0.7581926168401429  0.4217358288793127   T   T   T
  0.4444400000000002  0.8888900000000035  0.0475100000000026   F   F   F
  0.4617158923140168  0.8484750583962013  0.4752673509775184   T   T   T
  0.3341527240644505  0.6658472759355493  0.3611473725781492   T   T   T
  0.5555599999999998  0.7777799999999999  0.1974799999999988   F   F   F
  0.6666699999999963  0.6666700000000034  0.1225000000000023   F   F   F
  0.7730664528078964  0.8931261879559190  0.2748689833447928   T   T   T
  0.8765911009512127  0.7939269690945955  0.4243106744177610   T   T   T
  0.7777799999999999  0.8888900000000035  0.0475100000000026   F   F   F
  0.7718906487333813  0.8954261315362793  0.4936424536387561   T   T   T
  0.6692691332581161  0.6643990058260240  0.3392090398158275   T   T   T
  0.8888899999999964  0.7777799999999999  0.1974799999999988   F   F   F
 
  0.00000000E+00  0.00000000E+00  0.00000000E+00
  0.00000000E+00  0.00000000E+00  0.00000000E+00
  0.00000000E+00  0.00000000E+00  0.00000000E+00
  0.00000000E+00  0.00000000E+00  0.00000000E+00
  0.00000000E+00  0.00000000E+00  0.00000000E+00
  0.00000000E+00  0.00000000E+00  0.00000000E+00
  0.00000000E+00  0.00000000E+00  0.00000000E+00
  0.00000000E+00  0.00000000E+00  0.00000000E+00
  0.00000000E+00  0.00000000E+00  0.00000000E+00
  0.00000000E+00  0.00000000E+00  0.00000000E+00
  0.00000000E+00  0.00000000E+00  0.00000000E+00
  0.00000000E+00  0.00000000E+00  0.00000000E+00
  0.00000000E+00  0.00000000E+00  0.00000000E+00
  0.00000000E+00  0.00000000E+00  0.00000000E+00
  0.00000000E+00  0.00000000E+00  0.00000000E+00
  0.00000000E+00  0.00000000E+00  0.00000000E+00
  0.00000000E+00  0.00000000E+00  0.00000000E+00
  0.00000000E+00  0.00000000E+00  0.00000000E+00
  0.00000000E+00  0.00000000E+00  0.00000000E+00
  0.00000000E+00  0.00000000E+00  0.00000000E+00
  0.00000000E+00  0.00000000E+00  0.00000000E+00
  0.00000000E+00  0.00000000E+00  0.00000000E+00
  0.00000000E+00  0.00000000E+00  0.00000000E+00
  0.00000000E+00  0.00000000E+00  0.00000000E+00
  0.00000000E+00  0.00000000E+00  0.00000000E+00
  0.00000000E+00  0.00000000E+00  0.00000000E+00
  0.00000000E+00  0.00000000E+00  0.00000000E+00
  0.00000000E+00  0.00000000E+00  0.00000000E+00
  0.00000000E+00  0.00000000E+00  0.00000000E+00
  0.00000000E+00  0.00000000E+00  0.00000000E+00
  0.00000000E+00  0.00000000E+00  0.00000000E+00
  0.00000000E+00  0.00000000E+00  0.00000000E+00
  0.00000000E+00  0.00000000E+00  0.00000000E+00
  0.00000000E+00  0.00000000E+00  0.00000000E+00
  0.00000000E+00  0.00000000E+00  0.00000000E+00
  0.00000000E+00  0.00000000E+00  0.00000000E+00
  0.00000000E+00  0.00000000E+00  0.00000000E+00
  0.00000000E+00  0.00000000E+00  0.00000000E+00
  0.00000000E+00  0.00000000E+00  0.00000000E+00
  0.00000000E+00  0.00000000E+00  0.00000000E+00
  0.00000000E+00  0.00000000E+00  0.00000000E+00
  0.00000000E+00  0.00000000E+00  0.00000000E+00
  0.00000000E+00  0.00000000E+00  0.00000000E+00
  0.00000000E+00  0.00000000E+00  0.00000000E+00
  0.00000000E+00  0.00000000E+00  0.00000000E+00
  0.00000000E+00  0.00000000E+00  0.00000000E+00
  0.00000000E+00  0.00000000E+00  0.00000000E+00
  0.00000000E+00  0.00000000E+00  0.00000000E+00
  0.00000000E+00  0.00000000E+00  0.00000000E+00
  0.00000000E+00  0.00000000E+00  0.00000000E+00
  0.00000000E+00  0.00000000E+00  0.00000000E+00
  0.00000000E+00  0.00000000E+00  0.00000000E+00
  0.00000000E+00  0.00000000E+00  0.00000000E+00
  0.00000000E+00  0.00000000E+00  0.00000000E+00
  0.00000000E+00  0.00000000E+00  0.00000000E+00
  0.00000000E+00  0.00000000E+00  0.00000000E+00
  0.00000000E+00  0.00000000E+00  0.00000000E+00
  0.00000000E+00  0.00000000E+00  0.00000000E+00
  0.00000000E+00  0.00000000E+00  0.00000000E+00
  0.00000000E+00  0.00000000E+00  0.00000000E+00
  0.00000000E+00  0.00000000E+00  0.00000000E+00
  0.00000000E+00  0.00000000E+00  0.00000000E+00
  0.00000000E+00  0.00000000E+00  0.00000000E+00
  0.00000000E+00  0.00000000E+00  0.00000000E+00
  0.00000000E+00  0.00000000E+00  0.00000000E+00
  0.00000000E+00  0.00000000E+00  0.00000000E+00
  0.00000000E+00  0.00000000E+00  0.00000000E+00
  0.00000000E+00  0.00000000E+00  0.00000000E+00
  0.00000000E+00  0.00000000E+00  0.00000000E+00
  0.00000000E+00  0.00000000E+00  0.00000000E+00
  0.00000000E+00  0.00000000E+00  0.00000000E+00
  0.00000000E+00  0.00000000E+00  0.00000000E+00
  0.00000000E+00  0.00000000E+00  0.00000000E+00
  0.00000000E+00  0.00000000E+00  0.00000000E+00
  0.00000000E+00  0.00000000E+00  0.00000000E+00
  0.00000000E+00  0.00000000E+00  0.00000000E+00
  0.00000000E+00  0.00000000E+00  0.00000000E+00
  0.00000000E+00  0.00000000E+00  0.00000000E+00
  0.00000000E+00  0.00000000E+00  0.00000000E+00
  0.00000000E+00  0.00000000E+00  0.00000000E+00
  0.00000000E+00  0.00000000E+00  0.00000000E+00
  0.00000000E+00  0.00000000E+00  0.00000000E+00
  0.00000000E+00  0.00000000E+00  0.00000000E+00
  0.00000000E+00  0.00000000E+00  0.00000000E+00
  0.00000000E+00  0.00000000E+00  0.00000000E+00
  0.00000000E+00  0.00000000E+00  0.00000000E+00
  0.00000000E+00  0.00000000E+00  0.00000000E+00
  0.00000000E+00  0.00000000E+00  0.00000000E+00
  0.00000000E+00  0.00000000E+00  0.00000000E+00
  0.00000000E+00  0.00000000E+00  0.00000000E+00
