C: Graphite Lattice
1.0
 +2.4410462393  +0.0000000000  +0.0000000000 
 -1.2205231197  +2.1140080551  +0.0000000000 
 +0.0000000000  +0.0000000000 +22.0000000000 
 10
Cartesian
 +0.0000000000  +0.0000000000  +0.0000000000 
 +0.0000000000  +1.4093387034  +0.0000000000 
 +0.0000000000  +1.4093387034  +3.3070243927 
 +1.2205231197  +0.7046693517  +3.3070243927 
 +0.0000000000  +0.0000000000  +6.6140487854 
 +0.0000000000  +1.4093387034  +6.6140487854 
 +0.0000000000  +1.4093387034  +9.9210731781 
 +1.2205231197  +0.7046693517  +9.9210731781 
 +0.0000000000  +0.0000000000 +13.2280975708 
 +0.0000000000  +1.4093387034 +13.2280975708
