K-Spacing Value to Generate K-Mesh: 0.020
0
Monkhorst-Pack
   9   9   9
0.0  0.0  0.0
