Generated by VASPKIT code               
   1.00000000000000     
    15.4643001556000002    0.0000000000000000    0.0000000000000000
    -7.7321500778000001   13.3924767864999996    0.0000000000000000
     0.0000000000000000    0.0000000000000000   21.0482006073000001
  Ce              O               Ir            
    32   114     6
Selective dynamics
Direct
  0.0016510022373588  0.9994875959528061  0.4622373908013874   T   T   T
  0.1666700000000034  0.0833299999999966  0.3099599999999967   F   F   F
  0.2461248498362324  0.9946357904495499  0.4608679370038584   T   T   T
  0.4166700000000034  0.0833299999999966  0.3099599999999967   F   F   F
  0.4958126690679602  0.0021157664357407  0.4603267552891274   T   T   T
  0.6666700000000034  0.0833299999999966  0.3099599999999967   F   F   F
  0.7519588321073325  0.0051968618967348  0.4615259763893637   T   T   T
  0.9166700000000034  0.0833299999999966  0.3099599999999967   F   F   F
  0.9941662564835055  0.2434611019644330  0.4613207245446470   T   T   T
  0.1666700000000034  0.3333299999999966  0.3099599999999967   F   F   F
  0.2438494005736755  0.2532933296203280  0.4603097127200285   T   T   T
  0.4166700000000034  0.3333299999999966  0.3099599999999967   F   F   F
  0.5029400986731942  0.2495301464889056  0.4631830347259573   T   T   T
  0.6666700000000034  0.3333299999999966  0.3099599999999967   F   F   F
  0.7484830962993198  0.2482101059039172  0.4608119171145305   T   T   T
  0.9166700000000034  0.3333299999999966  0.3099599999999967   F   F   F
  0.9922627109265001  0.4969438016442819  0.4597525594659511   T   T   T
  0.1666700000000034  0.5833299999999966  0.3099599999999967   F   F   F
  0.2511804737704955  0.5012315063104439  0.4618095115776479   T   T   T
  0.4166700000000034  0.5833299999999966  0.3099599999999967   F   F   F
  0.4967974552124939  0.5017904572125463  0.4645400325021810   T   T   T
  0.6666700000000034  0.5833299999999966  0.3099599999999967   F   F   F
  0.7503177246119518  0.4969749282122661  0.4629654322576997   T   T   T
  0.9166700000000034  0.5833299999999966  0.3099599999999967   F   F   F
  0.0096790430161504  0.7564777736412963  0.4657447686199116   T   T   T
  0.1666700000000034  0.8333299999999966  0.3099599999999967   F   F   F
  0.2451505488484957  0.7546820197489921  0.4658175403159390   T   T   T
  0.4166700000000034  0.8333299999999966  0.3099599999999967   F   F   F
  0.4993515676022942  0.7481419318704732  0.4630283101419095   T   T   T
  0.6666700000000034  0.8333299999999966  0.3099599999999967   F   F   F
  0.7474660778443548  0.7535716137194226  0.4597581287628798   T   T   T
  0.9166700000000034  0.8333299999999966  0.3099599999999967   F   F   F
  0.9467814877643616  0.9886220013242378  0.5702149934824191   T   T   T
  0.0833299999999966  0.1666700000000034  0.2724699999999984   F   F   F
  0.1815218291556625  0.0923213945079065  0.4263749030702956   T   T   T
  0.0804242259887137  0.1644612575459550  0.4910225500698241   T   T   T
  0.0021536810531987  0.9981954191499930  0.3512707021844133   T   T   T
  0.1666700000000034  0.0833299999999966  0.1974799999999988   F   F   F
  0.2106508084275924  0.1030065616545227  0.6267765617312576   T   T   T
  0.3333299999999966  0.1666700000000034  0.2724699999999984   F   F   F
  0.4114313118480886  0.0894436490592120  0.4269915299176885   T   T   T
  0.3266910451924258  0.1540418533176731  0.5285199522181815   T   T   T
  0.2503233412398331  0.0023015645948173  0.3488013388759576   T   T   T
  0.4166700000000034  0.0833299999999966  0.1974799999999988   F   F   F
  0.5390561733569948  0.1144211393744190  0.6590524196493294   T   T   T
  0.5833299999999966  0.1666700000000034  0.2724699999999984   F   F   F
  0.6651252644832130  0.0802724330340978  0.4239187046868005   T   T   T
  0.5845030577468520  0.1667971872408904  0.4953052558424632   T   T   T
  0.4985314286050373  0.0026559101649101  0.3506527764123341   T   T   T
  0.6666700000000034  0.0833299999999966  0.1974799999999988   F   F   F
  0.6723915894288551  0.0284627574378759  0.6041521885629316   T   T   T
  0.8333299999999966  0.1666700000000034  0.2724699999999984   F   F   F
  0.9128185432957799  0.0829150661687977  0.4220097697727275   T   T   T
  0.8327369946327420  0.1661212266110307  0.4977168845075983   T   T   T
  0.7495216502272879  0.0005067361235874  0.3495232364957334   T   T   T
  0.9166700000000034  0.0833299999999966  0.1974799999999988   F   F   F
  0.9551725685573137  0.3383693387769471  0.6170318252946011   T   T   T
  0.0833299999999966  0.4166700000000034  0.2724699999999984   F   F   F
  0.1604315988113492  0.3376223242675285  0.4259267340256236   T   T   T
  0.0675866299889792  0.4141516287820629  0.5174780393158397   T   T   T
  0.9994144479182424  0.2487022380094515  0.3499461457654678   T   T   T
  0.1666700000000034  0.3333299999999966  0.1974799999999988   F   F   F
  0.1798098210251682  0.2901547713849396  0.6031981957709572   T   T   T
  0.3333299999999966  0.4166700000000034  0.2724699999999984   F   F   F
  0.4132527400577281  0.3228869966795848  0.4298419672962832   T   T   T
  0.3311075913760235  0.4132785930696910  0.4936772699848147   T   T   T
  0.2491850520522206  0.2538443404498294  0.3513367040537996   T   T   T
  0.4166700000000034  0.3333299999999966  0.1974799999999988   F   F   F
  0.4908295391188019  0.2694382661924002  0.5835256469126072   T   T   T
  0.5833299999999966  0.4166700000000034  0.2724699999999984   F   F   F
  0.6623739387878969  0.3353490123210045  0.4251116127944234   T   T   T
  0.5824695292637916  0.4163046041466210  0.5083159785246331   T   T   T
  0.5000421523937677  0.2504833424598898  0.3494010685257768   T   T   T
  0.6666700000000034  0.3333299999999966  0.1974799999999988   F   F   F
  0.7139726797206414  0.2915038604141523  0.6670714344297708   T   T   T
  0.8333299999999966  0.4166700000000034  0.2724699999999984   F   F   F
  0.9201323592721444  0.3338608940728672  0.4237246935926604   T   T   T
  0.8286132469436718  0.4108658222534146  0.4951463949536662   T   T   T
  0.7493216063592198  0.2497372080663492  0.3521706313974796   T   T   T
  0.9166700000000034  0.3333299999999966  0.1974799999999988   F   F   F
  0.8827770634427641  0.4695079475435426  0.6584606439104224   T   T   T
  0.0833299999999966  0.6666700000000034  0.2724699999999984   F   F   F
  0.1595497548996242  0.5699309827904434  0.4251201378421430   T   T   T
  0.0753514885822393  0.6522695961391801  0.4965298516633914   T   T   T
  0.9963375429189255  0.5003456202806384  0.3498483408998502   T   T   T
  0.1666700000000034  0.5833299999999966  0.1974799999999988   F   F   F
  0.2331616613627984  0.5183408676374442  0.5789979945918128   T   T   T
  0.3333299999999966  0.6666700000000034  0.2724699999999984   F   F   F
  0.4150687927521234  0.5846198260016435  0.4229546831555562   T   T   T
  0.3276148423186934  0.6714618935197233  0.4948240922761368   T   T   T
  0.2512961337499468  0.4999869137243267  0.3484012128636539   T   T   T
  0.4166700000000034  0.5833299999999966  0.1974799999999988   F   F   F
  0.4936190512395399  0.4980684670009520  0.5903957316116102   T   T   T
  0.5833299999999966  0.6666700000000034  0.2724699999999984   F   F   F
  0.6768952729526725  0.5855090416270737  0.4280685418980038   T   T   T
  0.5888356216883824  0.6670807862788248  0.4913253935486347   T   T   T
  0.5009755259479969  0.4983408215910906  0.3542904940918821   T   T   T
  0.6666700000000034  0.5833299999999966  0.1974799999999988   F   F   F
  0.7281751943486922  0.5061589156790012  0.5847467777602231   T   T   T
  0.8333299999999966  0.6666700000000034  0.2724699999999984   F   F   F
  0.9087938621895216  0.5874244196208236  0.4274215494777073   T   T   T
  0.8391469664600053  0.6706789589432479  0.5284125012590850   T   T   T
  0.7489467010923322  0.4988194180148526  0.3488943961195903   T   T   T
  0.9166700000000034  0.5833299999999966  0.1974799999999988   F   F   F
  0.8874828801272616  0.7880306100511528  0.6256605586350796   T   T   T
  0.0833299999999966  0.9166700000000034  0.2724699999999984   F   F   F
  0.1680108642195547  0.8353012466399140  0.4170551249024320   T   T   T
  0.0864438445476600  0.9220189281479882  0.4937731550391858   T   T   T
  0.9990633456870891  0.7501428982748988  0.3500587427812901   T   T   T
  0.1666700000000034  0.8333299999999966  0.1974799999999988   F   F   F
  0.1372385461593024  0.7885505287501330  0.5340888712922546   T   T   T
  0.3333299999999966  0.9166700000000034  0.2724699999999984   F   F   F
  0.4229994689344670  0.8376871846371550  0.4245980302482164   T   T   T
  0.3342816753636862  0.9208261592112629  0.4953972105651233   T   T   T
  0.2507369289827902  0.7472536746386584  0.3526330828608584   T   T   T
  0.4166700000000034  0.8333299999999966  0.1974799999999988   F   F   F
  0.4902900440316319  0.7686674864637951  0.5799312928259864   T   T   T
  0.5833299999999966  0.9166700000000034  0.2724699999999984   F   F   F
  0.6646637510231642  0.8393452723202133  0.4270475074035788   T   T   T
  0.5767415918289622  0.9239444424247768  0.5109303678501185   T   T   T
  0.5015729555907107  0.7493373770033436  0.3492405431917923   T   T   T
  0.6666700000000034  0.8333299999999966  0.1974799999999988   F   F   F
  0.7143864315372628  0.8206664743071554  0.6045426096762677   T   T   T
  0.8333299999999966  0.9166700000000034  0.2724699999999984   F   F   F
  0.9088983026981384  0.8219407375597703  0.4276446450443560   T   T   T
  0.8368794360764239  0.9211162099498951  0.4952583107331739   T   T   T
  0.7468673103408837  0.7502903397388394  0.3507357205943078   T   T   T
  0.9166700000000034  0.8333299999999966  0.1974799999999988   F   F   F
  0.5284937877674939  0.4645504906699445  0.6324963911815731   T   T   T
  0.2951887712416870  0.7259968009546297  0.5991542829546502   T   T   T
  0.6885834955355993  0.6495850548426146  0.6274261349996801   T   T   T
  0.4557327997883734  0.9058745062828273  0.6204701318053184   T   T   T
  0.6131867300322366  0.3814815040800537  0.6896220182896606   T   T   T
  0.3633504031552314  0.6293198776158733  0.6754929672269206   T   T   T
  0.8357341236805709  0.6123770541386963  0.6837405580743939   T   T   T
  0.5954787824592831  0.8719942947389859  0.6838385847538110   T   T   T
  0.6956035580559026  0.3051240683275396  0.6114992712078525   T   T   T
  0.4168249990789841  0.5985908728762475  0.5530805530641040   T   T   T
  0.9219469319618130  0.5264417440834742  0.6132616540251411   T   T   T
  0.6801297988625893  0.8633444770078914  0.5704141523241893   T   T   T
  0.3444803083883557  0.3026783194472049  0.6282087066488899   T   T   T
  0.0904111608678451  0.5436111902800779  0.6203828267593572   T   T   T
  0.3885538009027604  0.1580349419998082  0.6821352986455198   T   T   T
  0.1286869272247586  0.3963115138213263  0.6785378109151589   T   T   T
  0.4809121124523402  0.0765103575893109  0.6143500817152817   T   T   T
  0.1258576519036896  0.3153358620808802  0.5721788737822080   T   T   T
  0.5683340238133110  0.9063109821152645  0.6107046160729314   T   T   T
  0.3466579479469450  0.6467090363298422  0.5945482744384840   T   T   T
  0.8049106255551536  0.6574899432922673  0.6172802066726961   T   T   T
  0.6032914151452653  0.3939197542452481  0.6066644772054129   T   T   T
  0.0841601579319543  0.4279875057781372  0.6120154016749181   T   T   T
  0.3399951911563653  0.1887978689532154  0.6173057804549132   T   T   T
 
  0.00000000E+00  0.00000000E+00  0.00000000E+00
  0.00000000E+00  0.00000000E+00  0.00000000E+00
  0.00000000E+00  0.00000000E+00  0.00000000E+00
  0.00000000E+00  0.00000000E+00  0.00000000E+00
  0.00000000E+00  0.00000000E+00  0.00000000E+00
  0.00000000E+00  0.00000000E+00  0.00000000E+00
  0.00000000E+00  0.00000000E+00  0.00000000E+00
  0.00000000E+00  0.00000000E+00  0.00000000E+00
  0.00000000E+00  0.00000000E+00  0.00000000E+00
  0.00000000E+00  0.00000000E+00  0.00000000E+00
  0.00000000E+00  0.00000000E+00  0.00000000E+00
  0.00000000E+00  0.00000000E+00  0.00000000E+00
  0.00000000E+00  0.00000000E+00  0.00000000E+00
  0.00000000E+00  0.00000000E+00  0.00000000E+00
  0.00000000E+00  0.00000000E+00  0.00000000E+00
  0.00000000E+00  0.00000000E+00  0.00000000E+00
  0.00000000E+00  0.00000000E+00  0.00000000E+00
  0.00000000E+00  0.00000000E+00  0.00000000E+00
  0.00000000E+00  0.00000000E+00  0.00000000E+00
  0.00000000E+00  0.00000000E+00  0.00000000E+00
  0.00000000E+00  0.00000000E+00  0.00000000E+00
  0.00000000E+00  0.00000000E+00  0.00000000E+00
  0.00000000E+00  0.00000000E+00  0.00000000E+00
  0.00000000E+00  0.00000000E+00  0.00000000E+00
  0.00000000E+00  0.00000000E+00  0.00000000E+00
  0.00000000E+00  0.00000000E+00  0.00000000E+00
  0.00000000E+00  0.00000000E+00  0.00000000E+00
  0.00000000E+00  0.00000000E+00  0.00000000E+00
  0.00000000E+00  0.00000000E+00  0.00000000E+00
  0.00000000E+00  0.00000000E+00  0.00000000E+00
  0.00000000E+00  0.00000000E+00  0.00000000E+00
  0.00000000E+00  0.00000000E+00  0.00000000E+00
  0.00000000E+00  0.00000000E+00  0.00000000E+00
  0.00000000E+00  0.00000000E+00  0.00000000E+00
  0.00000000E+00  0.00000000E+00  0.00000000E+00
  0.00000000E+00  0.00000000E+00  0.00000000E+00
  0.00000000E+00  0.00000000E+00  0.00000000E+00
  0.00000000E+00  0.00000000E+00  0.00000000E+00
  0.00000000E+00  0.00000000E+00  0.00000000E+00
  0.00000000E+00  0.00000000E+00  0.00000000E+00
  0.00000000E+00  0.00000000E+00  0.00000000E+00
  0.00000000E+00  0.00000000E+00  0.00000000E+00
  0.00000000E+00  0.00000000E+00  0.00000000E+00
  0.00000000E+00  0.00000000E+00  0.00000000E+00
  0.00000000E+00  0.00000000E+00  0.00000000E+00
  0.00000000E+00  0.00000000E+00  0.00000000E+00
  0.00000000E+00  0.00000000E+00  0.00000000E+00
  0.00000000E+00  0.00000000E+00  0.00000000E+00
  0.00000000E+00  0.00000000E+00  0.00000000E+00
  0.00000000E+00  0.00000000E+00  0.00000000E+00
  0.00000000E+00  0.00000000E+00  0.00000000E+00
  0.00000000E+00  0.00000000E+00  0.00000000E+00
  0.00000000E+00  0.00000000E+00  0.00000000E+00
  0.00000000E+00  0.00000000E+00  0.00000000E+00
  0.00000000E+00  0.00000000E+00  0.00000000E+00
  0.00000000E+00  0.00000000E+00  0.00000000E+00
  0.00000000E+00  0.00000000E+00  0.00000000E+00
  0.00000000E+00  0.00000000E+00  0.00000000E+00
  0.00000000E+00  0.00000000E+00  0.00000000E+00
  0.00000000E+00  0.00000000E+00  0.00000000E+00
  0.00000000E+00  0.00000000E+00  0.00000000E+00
  0.00000000E+00  0.00000000E+00  0.00000000E+00
  0.00000000E+00  0.00000000E+00  0.00000000E+00
  0.00000000E+00  0.00000000E+00  0.00000000E+00
  0.00000000E+00  0.00000000E+00  0.00000000E+00
  0.00000000E+00  0.00000000E+00  0.00000000E+00
  0.00000000E+00  0.00000000E+00  0.00000000E+00
  0.00000000E+00  0.00000000E+00  0.00000000E+00
  0.00000000E+00  0.00000000E+00  0.00000000E+00
  0.00000000E+00  0.00000000E+00  0.00000000E+00
  0.00000000E+00  0.00000000E+00  0.00000000E+00
  0.00000000E+00  0.00000000E+00  0.00000000E+00
  0.00000000E+00  0.00000000E+00  0.00000000E+00
  0.00000000E+00  0.00000000E+00  0.00000000E+00
  0.00000000E+00  0.00000000E+00  0.00000000E+00
  0.00000000E+00  0.00000000E+00  0.00000000E+00
  0.00000000E+00  0.00000000E+00  0.00000000E+00
  0.00000000E+00  0.00000000E+00  0.00000000E+00
  0.00000000E+00  0.00000000E+00  0.00000000E+00
  0.00000000E+00  0.00000000E+00  0.00000000E+00
  0.00000000E+00  0.00000000E+00  0.00000000E+00
  0.00000000E+00  0.00000000E+00  0.00000000E+00
  0.00000000E+00  0.00000000E+00  0.00000000E+00
  0.00000000E+00  0.00000000E+00  0.00000000E+00
  0.00000000E+00  0.00000000E+00  0.00000000E+00
  0.00000000E+00  0.00000000E+00  0.00000000E+00
  0.00000000E+00  0.00000000E+00  0.00000000E+00
  0.00000000E+00  0.00000000E+00  0.00000000E+00
  0.00000000E+00  0.00000000E+00  0.00000000E+00
  0.00000000E+00  0.00000000E+00  0.00000000E+00
  0.00000000E+00  0.00000000E+00  0.00000000E+00
  0.00000000E+00  0.00000000E+00  0.00000000E+00
  0.00000000E+00  0.00000000E+00  0.00000000E+00
  0.00000000E+00  0.00000000E+00  0.00000000E+00
  0.00000000E+00  0.00000000E+00  0.00000000E+00
  0.00000000E+00  0.00000000E+00  0.00000000E+00
  0.00000000E+00  0.00000000E+00  0.00000000E+00
  0.00000000E+00  0.00000000E+00  0.00000000E+00
  0.00000000E+00  0.00000000E+00  0.00000000E+00
  0.00000000E+00  0.00000000E+00  0.00000000E+00
  0.00000000E+00  0.00000000E+00  0.00000000E+00
  0.00000000E+00  0.00000000E+00  0.00000000E+00
  0.00000000E+00  0.00000000E+00  0.00000000E+00
  0.00000000E+00  0.00000000E+00  0.00000000E+00
  0.00000000E+00  0.00000000E+00  0.00000000E+00
  0.00000000E+00  0.00000000E+00  0.00000000E+00
  0.00000000E+00  0.00000000E+00  0.00000000E+00
  0.00000000E+00  0.00000000E+00  0.00000000E+00
  0.00000000E+00  0.00000000E+00  0.00000000E+00
  0.00000000E+00  0.00000000E+00  0.00000000E+00
  0.00000000E+00  0.00000000E+00  0.00000000E+00
  0.00000000E+00  0.00000000E+00  0.00000000E+00
  0.00000000E+00  0.00000000E+00  0.00000000E+00
  0.00000000E+00  0.00000000E+00  0.00000000E+00
  0.00000000E+00  0.00000000E+00  0.00000000E+00
  0.00000000E+00  0.00000000E+00  0.00000000E+00
  0.00000000E+00  0.00000000E+00  0.00000000E+00
  0.00000000E+00  0.00000000E+00  0.00000000E+00
  0.00000000E+00  0.00000000E+00  0.00000000E+00
  0.00000000E+00  0.00000000E+00  0.00000000E+00
  0.00000000E+00  0.00000000E+00  0.00000000E+00
  0.00000000E+00  0.00000000E+00  0.00000000E+00
  0.00000000E+00  0.00000000E+00  0.00000000E+00
  0.00000000E+00  0.00000000E+00  0.00000000E+00
  0.00000000E+00  0.00000000E+00  0.00000000E+00
  0.00000000E+00  0.00000000E+00  0.00000000E+00
  0.00000000E+00  0.00000000E+00  0.00000000E+00
  0.00000000E+00  0.00000000E+00  0.00000000E+00
  0.00000000E+00  0.00000000E+00  0.00000000E+00
  0.00000000E+00  0.00000000E+00  0.00000000E+00
  0.00000000E+00  0.00000000E+00  0.00000000E+00
  0.00000000E+00  0.00000000E+00  0.00000000E+00
  0.00000000E+00  0.00000000E+00  0.00000000E+00
  0.00000000E+00  0.00000000E+00  0.00000000E+00
  0.00000000E+00  0.00000000E+00  0.00000000E+00
  0.00000000E+00  0.00000000E+00  0.00000000E+00
  0.00000000E+00  0.00000000E+00  0.00000000E+00
  0.00000000E+00  0.00000000E+00  0.00000000E+00
  0.00000000E+00  0.00000000E+00  0.00000000E+00
  0.00000000E+00  0.00000000E+00  0.00000000E+00
  0.00000000E+00  0.00000000E+00  0.00000000E+00
  0.00000000E+00  0.00000000E+00  0.00000000E+00
  0.00000000E+00  0.00000000E+00  0.00000000E+00
  0.00000000E+00  0.00000000E+00  0.00000000E+00
  0.00000000E+00  0.00000000E+00  0.00000000E+00
  0.00000000E+00  0.00000000E+00  0.00000000E+00
  0.00000000E+00  0.00000000E+00  0.00000000E+00
  0.00000000E+00  0.00000000E+00  0.00000000E+00
  0.00000000E+00  0.00000000E+00  0.00000000E+00
  0.00000000E+00  0.00000000E+00  0.00000000E+00
  0.00000000E+00  0.00000000E+00  0.00000000E+00
  0.00000000E+00  0.00000000E+00  0.00000000E+00
