Generated by VASPKIT code               
   1.00000000000000     
    15.4643001556000002    0.0000000000000000    0.0000000000000000
    -7.7321500778000001   13.3924767864999996    0.0000000000000000
     0.0000000000000000    0.0000000000000000   21.0482006073000001
  Ce              O               Ir            
    32   114     6
Selective dynamics
Direct
  0.0018863940396510  0.9997173204216859  0.4626362759721268   T   T   T
  0.1666700000000034  0.0833299999999966  0.3099599999999967   F   F   F
  0.2464792205966284  0.9949680092123337  0.4607372830229137   T   T   T
  0.4166700000000034  0.0833299999999966  0.3099599999999967   F   F   F
  0.4952589357184765  0.0018456325927934  0.4604238383874033   T   T   T
  0.6666700000000034  0.0833299999999966  0.3099599999999967   F   F   F
  0.7522648258575328  0.0053539067654664  0.4613876445044202   T   T   T
  0.9166700000000034  0.0833299999999966  0.3099599999999967   F   F   F
  0.9942460776530216  0.2435527708800840  0.4611766555083855   T   T   T
  0.1666700000000034  0.3333299999999966  0.3099599999999967   F   F   F
  0.2440265164976259  0.2531833297734230  0.4602256669680633   T   T   T
  0.4166700000000034  0.3333299999999966  0.3099599999999967   F   F   F
  0.5031151472376566  0.2495454126476243  0.4634508674430429   T   T   T
  0.6666700000000034  0.3333299999999966  0.3099599999999967   F   F   F
  0.7484924180884119  0.2479718037097846  0.4607899110709341   T   T   T
  0.9166700000000034  0.3333299999999966  0.3099599999999967   F   F   F
  0.9927669763654881  0.4973393042825732  0.4598052717742399   T   T   T
  0.1666700000000034  0.5833299999999966  0.3099599999999967   F   F   F
  0.2512498823091050  0.5013135491211419  0.4615906336506964   T   T   T
  0.4166700000000034  0.5833299999999966  0.3099599999999967   F   F   F
  0.4969112522629535  0.5018365004233704  0.4643245492251236   T   T   T
  0.6666700000000034  0.5833299999999966  0.3099599999999967   F   F   F
  0.7503628576385137  0.4966644506694275  0.4631382318212825   T   T   T
  0.9166700000000034  0.5833299999999966  0.3099599999999967   F   F   F
  0.0096198496100331  0.7563995051941883  0.4654515187020423   T   T   T
  0.1666700000000034  0.8333299999999966  0.3099599999999967   F   F   F
  0.2451296107292581  0.7548794751898575  0.4654081261065647   T   T   T
  0.4166700000000034  0.8333299999999966  0.3099599999999967   F   F   F
  0.4994384475764107  0.7481513840655779  0.4629838566718700   T   T   T
  0.6666700000000034  0.8333299999999966  0.3099599999999967   F   F   F
  0.7476476927015069  0.7538084704914898  0.4596554759970277   T   T   T
  0.9166700000000034  0.8333299999999966  0.3099599999999967   F   F   F
  0.9473939861546918  0.9891529793829290  0.5703961098322330   T   T   T
  0.0833299999999966  0.1666700000000034  0.2724699999999984   F   F   F
  0.1815592971402030  0.0926231636708029  0.4259626878536377   T   T   T
  0.0808137784040034  0.1645303697337716  0.4910790291803134   T   T   T
  0.0020023102274047  0.9981695095575982  0.3513237438007075   T   T   T
  0.1666700000000034  0.0833299999999966  0.1974799999999988   F   F   F
  0.2106971262229570  0.1048423768533082  0.6265553361613073   T   T   T
  0.3333299999999966  0.1666700000000034  0.2724699999999984   F   F   F
  0.4118001352932116  0.0889869935053782  0.4271140549251313   T   T   T
  0.3262733702578300  0.1537858314834367  0.5281760498665703   T   T   T
  0.2507225716996859  0.0028015755586856  0.3485742960675166   T   T   T
  0.4166700000000034  0.0833299999999966  0.1974799999999988   F   F   F
  0.5391525365252390  0.1139789340565621  0.6599432827775197   T   T   T
  0.5833299999999966  0.1666700000000034  0.2724699999999984   F   F   F
  0.6651129689544473  0.0801059908038574  0.4239773753649894   T   T   T
  0.5841944094793219  0.1664205988056469  0.4952426560478181   T   T   T
  0.4985273519460970  0.0026924634290232  0.3506725368033446   T   T   T
  0.6666700000000034  0.0833299999999966  0.1974799999999988   F   F   F
  0.6709492775733559  0.0290942951557138  0.6044473872090801   T   T   T
  0.8333299999999966  0.1666700000000034  0.2724699999999984   F   F   F
  0.9130461224182220  0.0830960254180763  0.4221224362864741   T   T   T
  0.8329052266827899  0.1662079700793796  0.4975807601016327   T   T   T
  0.7496918709192765  0.0006757793659610  0.3496047379140994   T   T   T
  0.9166700000000034  0.0833299999999966  0.1974799999999988   F   F   F
  0.9548799852317643  0.3396887432615619  0.6175232779714381   T   T   T
  0.0833299999999966  0.4166700000000034  0.2724699999999984   F   F   F
  0.1602740151321486  0.3375014658546907  0.4257678506342182   T   T   T
  0.0674910910135460  0.4142956589144056  0.5175508901708064   T   T   T
  0.9993616919503896  0.2485310474663975  0.3500581563727725   T   T   T
  0.1666700000000034  0.3333299999999966  0.1974799999999988   F   F   F
  0.1778559053004585  0.2889884463407352  0.6037512593826885   T   T   T
  0.3333299999999966  0.4166700000000034  0.2724699999999984   F   F   F
  0.4135638337769746  0.3231334027906941  0.4298619674828917   T   T   T
  0.3310601252754419  0.4135173953283003  0.4931308219310062   T   T   T
  0.2495376940897178  0.2540920056224542  0.3513781694146333   T   T   T
  0.4166700000000034  0.3333299999999966  0.1974799999999988   F   F   F
  0.4907101387192879  0.2691797828937011  0.5834168005690717   T   T   T
  0.5833299999999966  0.4166700000000034  0.2724699999999984   F   F   F
  0.6626225124597093  0.3354294134764134  0.4252956811854939   T   T   T
  0.5827489828630449  0.4160234804196563  0.5086652701856441   T   T   T
  0.5001084139433403  0.2503159582634155  0.3495227606901574   T   T   T
  0.6666700000000034  0.3333299999999966  0.1974799999999988   F   F   F
  0.7137609844427391  0.2914432903216662  0.6669977165476659   T   T   T
  0.8333299999999966  0.4166700000000034  0.2724699999999984   F   F   F
  0.9202985517502008  0.3338551373485672  0.4235727264774568   T   T   T
  0.8286733001866398  0.4107377244940623  0.4950883230200779   T   T   T
  0.7491756228318160  0.2497338925095473  0.3520427002178915   T   T   T
  0.9166700000000034  0.3333299999999966  0.1974799999999988   F   F   F
  0.8833501100142285  0.4698007387036390  0.6594080263590416   T   T   T
  0.0833299999999966  0.6666700000000034  0.2724699999999984   F   F   F
  0.1596568917788650  0.5697614400490260  0.4247874832574218   T   T   T
  0.0765907939460238  0.6525860028684256  0.4964933229774128   T   T   T
  0.9964911531052977  0.5003696567913313  0.3497823486529428   T   T   T
  0.1666700000000034  0.5833299999999966  0.1974799999999988   F   F   F
  0.2330753956452735  0.5177493292238787  0.5788731359822268   T   T   T
  0.3333299999999966  0.6666700000000034  0.2724699999999984   F   F   F
  0.4150880463051413  0.5847980756387374  0.4230373213611161   T   T   T
  0.3281618525777262  0.6713135278642092  0.4944189834004512   T   T   T
  0.2512517225549254  0.4998581301682246  0.3484682755367122   T   T   T
  0.4166700000000034  0.5833299999999966  0.1974799999999988   F   F   F
  0.4933944285916346  0.4978883742844062  0.5900235190311102   T   T   T
  0.5833299999999966  0.6666700000000034  0.2724699999999984   F   F   F
  0.6771621387841789  0.5853442969981987  0.4281853507188271   T   T   T
  0.5891712732881393  0.6673532919774361  0.4907404936240938   T   T   T
  0.5010408614201493  0.4986019331872228  0.3542865738624954   T   T   T
  0.6666700000000034  0.5833299999999966  0.1974799999999988   F   F   F
  0.7287142460485023  0.5065364895869479  0.5844562410013142   T   T   T
  0.8333299999999966  0.6666700000000034  0.2724699999999984   F   F   F
  0.9093620787735163  0.5869808623663693  0.4276803272731725   T   T   T
  0.8396989396760045  0.6712423416141986  0.5281264707437818   T   T   T
  0.7490496931909767  0.4987305286644364  0.3490135642258058   T   T   T
  0.9166700000000034  0.5833299999999966  0.1974799999999988   F   F   F
  0.8860043253988540  0.7886369587474839  0.6255498487472907   T   T   T
  0.0833299999999966  0.9166700000000034  0.2724699999999984   F   F   F
  0.1683062392671505  0.8353103240882943  0.4173181873553121   T   T   T
  0.0870514989478756  0.9222991184954388  0.4936148597738720   T   T   T
  0.9988583118255104  0.7498751500566003  0.3500313633913392   T   T   T
  0.1666700000000034  0.8333299999999966  0.1974799999999988   F   F   F
  0.1351361276109397  0.7872957188313136  0.5343949714920389   T   T   T
  0.3333299999999966  0.9166700000000034  0.2724699999999984   F   F   F
  0.4228645777351632  0.8377252844920121  0.4244901588802560   T   T   T
  0.3337820078969533  0.9202410495118429  0.4950486436457955   T   T   T
  0.2508696162191685  0.7470242402557694  0.3527094627029081   T   T   T
  0.4166700000000034  0.8333299999999966  0.1974799999999988   F   F   F
  0.4909239272580753  0.7686820180850783  0.5801532398641419   T   T   T
  0.5833299999999966  0.9166700000000034  0.2724699999999984   F   F   F
  0.6648282400858598  0.8395514791639355  0.4267320873198807   T   T   T
  0.5766589023475247  0.9233929772043169  0.5111554866350995   T   T   T
  0.5014978612266262  0.7495333697069452  0.3492272447263201   T   T   T
  0.6666700000000034  0.8333299999999966  0.1974799999999988   F   F   F
  0.7156008922326449  0.8220486853341867  0.6053910188981668   T   T   T
  0.8333299999999966  0.9166700000000034  0.2724699999999984   F   F   F
  0.9095178631620808  0.8224728025642136  0.4274408540938172   T   T   T
  0.8370036592762812  0.9210056076977231  0.4952760828799152   T   T   T
  0.7471291436617323  0.7502561702179998  0.3507092266690033   T   T   T
  0.9166700000000034  0.8333299999999966  0.1974799999999988   F   F   F
  0.5283946601358901  0.4649482129416420  0.6321189404287986   T   T   T
  0.2952128032275855  0.7255777088294990  0.5987113166321743   T   T   T
  0.6877535506938108  0.6493607123925383  0.6265939408624784   T   T   T
  0.4545239619563749  0.9057064295992008  0.6201372069223955   T   T   T
  0.6126065900135644  0.3817858647145323  0.6895730926239253   T   T   T
  0.3629805244770324  0.6293951916857717  0.6752379422222996   T   T   T
  0.8364499713444300  0.6139694056530025  0.6837423885840376   T   T   T
  0.5945886197580190  0.8712938459813335  0.6841391240179594   T   T   T
  0.6953538144315110  0.3052519445222570  0.6113339154404430   T   T   T
  0.4169344226893235  0.5991207122272223  0.5532925427903310   T   T   T
  0.9203397984951349  0.5257050215759971  0.6137536602454065   T   T   T
  0.6813258029750071  0.8640255523196111  0.5711952108210060   T   T   T
  0.3450685238577177  0.3036462068357080  0.6274931995153218   T   T   T
  0.0909563099085773  0.5446481478953579  0.6199658827488045   T   T   T
  0.3869713185900099  0.1573953513530341  0.6818197551048770   T   T   T
  0.1285459309719821  0.3970089679998587  0.6787314581241297   T   T   T
  0.4818010285013854  0.0785974505616833  0.6147918101650079   T   T   T
  0.1245609728784811  0.3144389147599821  0.5727617185552502   T   T   T
  0.5676975316144756  0.9058401432493821  0.6105772177308550   T   T   T
  0.3475237130054384  0.6469345916970095  0.5941263223873906   T   T   T
  0.8043387555841756  0.6573263337522112  0.6169369665413036   T   T   T
  0.6027699830889666  0.3933929389369664  0.6063771220393676   T   T   T
  0.0842950623485987  0.4285663506561335  0.6119442240392988   T   T   T
  0.3399345752380941  0.1889654928072058  0.6172049422314442   T   T   T
 
  0.00000000E+00  0.00000000E+00  0.00000000E+00
  0.00000000E+00  0.00000000E+00  0.00000000E+00
  0.00000000E+00  0.00000000E+00  0.00000000E+00
  0.00000000E+00  0.00000000E+00  0.00000000E+00
  0.00000000E+00  0.00000000E+00  0.00000000E+00
  0.00000000E+00  0.00000000E+00  0.00000000E+00
  0.00000000E+00  0.00000000E+00  0.00000000E+00
  0.00000000E+00  0.00000000E+00  0.00000000E+00
  0.00000000E+00  0.00000000E+00  0.00000000E+00
  0.00000000E+00  0.00000000E+00  0.00000000E+00
  0.00000000E+00  0.00000000E+00  0.00000000E+00
  0.00000000E+00  0.00000000E+00  0.00000000E+00
  0.00000000E+00  0.00000000E+00  0.00000000E+00
  0.00000000E+00  0.00000000E+00  0.00000000E+00
  0.00000000E+00  0.00000000E+00  0.00000000E+00
  0.00000000E+00  0.00000000E+00  0.00000000E+00
  0.00000000E+00  0.00000000E+00  0.00000000E+00
  0.00000000E+00  0.00000000E+00  0.00000000E+00
  0.00000000E+00  0.00000000E+00  0.00000000E+00
  0.00000000E+00  0.00000000E+00  0.00000000E+00
  0.00000000E+00  0.00000000E+00  0.00000000E+00
  0.00000000E+00  0.00000000E+00  0.00000000E+00
  0.00000000E+00  0.00000000E+00  0.00000000E+00
  0.00000000E+00  0.00000000E+00  0.00000000E+00
  0.00000000E+00  0.00000000E+00  0.00000000E+00
  0.00000000E+00  0.00000000E+00  0.00000000E+00
  0.00000000E+00  0.00000000E+00  0.00000000E+00
  0.00000000E+00  0.00000000E+00  0.00000000E+00
  0.00000000E+00  0.00000000E+00  0.00000000E+00
  0.00000000E+00  0.00000000E+00  0.00000000E+00
  0.00000000E+00  0.00000000E+00  0.00000000E+00
  0.00000000E+00  0.00000000E+00  0.00000000E+00
  0.00000000E+00  0.00000000E+00  0.00000000E+00
  0.00000000E+00  0.00000000E+00  0.00000000E+00
  0.00000000E+00  0.00000000E+00  0.00000000E+00
  0.00000000E+00  0.00000000E+00  0.00000000E+00
  0.00000000E+00  0.00000000E+00  0.00000000E+00
  0.00000000E+00  0.00000000E+00  0.00000000E+00
  0.00000000E+00  0.00000000E+00  0.00000000E+00
  0.00000000E+00  0.00000000E+00  0.00000000E+00
  0.00000000E+00  0.00000000E+00  0.00000000E+00
  0.00000000E+00  0.00000000E+00  0.00000000E+00
  0.00000000E+00  0.00000000E+00  0.00000000E+00
  0.00000000E+00  0.00000000E+00  0.00000000E+00
  0.00000000E+00  0.00000000E+00  0.00000000E+00
  0.00000000E+00  0.00000000E+00  0.00000000E+00
  0.00000000E+00  0.00000000E+00  0.00000000E+00
  0.00000000E+00  0.00000000E+00  0.00000000E+00
  0.00000000E+00  0.00000000E+00  0.00000000E+00
  0.00000000E+00  0.00000000E+00  0.00000000E+00
  0.00000000E+00  0.00000000E+00  0.00000000E+00
  0.00000000E+00  0.00000000E+00  0.00000000E+00
  0.00000000E+00  0.00000000E+00  0.00000000E+00
  0.00000000E+00  0.00000000E+00  0.00000000E+00
  0.00000000E+00  0.00000000E+00  0.00000000E+00
  0.00000000E+00  0.00000000E+00  0.00000000E+00
  0.00000000E+00  0.00000000E+00  0.00000000E+00
  0.00000000E+00  0.00000000E+00  0.00000000E+00
  0.00000000E+00  0.00000000E+00  0.00000000E+00
  0.00000000E+00  0.00000000E+00  0.00000000E+00
  0.00000000E+00  0.00000000E+00  0.00000000E+00
  0.00000000E+00  0.00000000E+00  0.00000000E+00
  0.00000000E+00  0.00000000E+00  0.00000000E+00
  0.00000000E+00  0.00000000E+00  0.00000000E+00
  0.00000000E+00  0.00000000E+00  0.00000000E+00
  0.00000000E+00  0.00000000E+00  0.00000000E+00
  0.00000000E+00  0.00000000E+00  0.00000000E+00
  0.00000000E+00  0.00000000E+00  0.00000000E+00
  0.00000000E+00  0.00000000E+00  0.00000000E+00
  0.00000000E+00  0.00000000E+00  0.00000000E+00
  0.00000000E+00  0.00000000E+00  0.00000000E+00
  0.00000000E+00  0.00000000E+00  0.00000000E+00
  0.00000000E+00  0.00000000E+00  0.00000000E+00
  0.00000000E+00  0.00000000E+00  0.00000000E+00
  0.00000000E+00  0.00000000E+00  0.00000000E+00
  0.00000000E+00  0.00000000E+00  0.00000000E+00
  0.00000000E+00  0.00000000E+00  0.00000000E+00
  0.00000000E+00  0.00000000E+00  0.00000000E+00
  0.00000000E+00  0.00000000E+00  0.00000000E+00
  0.00000000E+00  0.00000000E+00  0.00000000E+00
  0.00000000E+00  0.00000000E+00  0.00000000E+00
  0.00000000E+00  0.00000000E+00  0.00000000E+00
  0.00000000E+00  0.00000000E+00  0.00000000E+00
  0.00000000E+00  0.00000000E+00  0.00000000E+00
  0.00000000E+00  0.00000000E+00  0.00000000E+00
  0.00000000E+00  0.00000000E+00  0.00000000E+00
  0.00000000E+00  0.00000000E+00  0.00000000E+00
  0.00000000E+00  0.00000000E+00  0.00000000E+00
  0.00000000E+00  0.00000000E+00  0.00000000E+00
  0.00000000E+00  0.00000000E+00  0.00000000E+00
  0.00000000E+00  0.00000000E+00  0.00000000E+00
  0.00000000E+00  0.00000000E+00  0.00000000E+00
  0.00000000E+00  0.00000000E+00  0.00000000E+00
  0.00000000E+00  0.00000000E+00  0.00000000E+00
  0.00000000E+00  0.00000000E+00  0.00000000E+00
  0.00000000E+00  0.00000000E+00  0.00000000E+00
  0.00000000E+00  0.00000000E+00  0.00000000E+00
  0.00000000E+00  0.00000000E+00  0.00000000E+00
  0.00000000E+00  0.00000000E+00  0.00000000E+00
  0.00000000E+00  0.00000000E+00  0.00000000E+00
  0.00000000E+00  0.00000000E+00  0.00000000E+00
  0.00000000E+00  0.00000000E+00  0.00000000E+00
  0.00000000E+00  0.00000000E+00  0.00000000E+00
  0.00000000E+00  0.00000000E+00  0.00000000E+00
  0.00000000E+00  0.00000000E+00  0.00000000E+00
  0.00000000E+00  0.00000000E+00  0.00000000E+00
  0.00000000E+00  0.00000000E+00  0.00000000E+00
  0.00000000E+00  0.00000000E+00  0.00000000E+00
  0.00000000E+00  0.00000000E+00  0.00000000E+00
  0.00000000E+00  0.00000000E+00  0.00000000E+00
  0.00000000E+00  0.00000000E+00  0.00000000E+00
  0.00000000E+00  0.00000000E+00  0.00000000E+00
  0.00000000E+00  0.00000000E+00  0.00000000E+00
  0.00000000E+00  0.00000000E+00  0.00000000E+00
  0.00000000E+00  0.00000000E+00  0.00000000E+00
  0.00000000E+00  0.00000000E+00  0.00000000E+00
  0.00000000E+00  0.00000000E+00  0.00000000E+00
  0.00000000E+00  0.00000000E+00  0.00000000E+00
  0.00000000E+00  0.00000000E+00  0.00000000E+00
  0.00000000E+00  0.00000000E+00  0.00000000E+00
  0.00000000E+00  0.00000000E+00  0.00000000E+00
  0.00000000E+00  0.00000000E+00  0.00000000E+00
  0.00000000E+00  0.00000000E+00  0.00000000E+00
  0.00000000E+00  0.00000000E+00  0.00000000E+00
  0.00000000E+00  0.00000000E+00  0.00000000E+00
  0.00000000E+00  0.00000000E+00  0.00000000E+00
  0.00000000E+00  0.00000000E+00  0.00000000E+00
  0.00000000E+00  0.00000000E+00  0.00000000E+00
  0.00000000E+00  0.00000000E+00  0.00000000E+00
  0.00000000E+00  0.00000000E+00  0.00000000E+00
  0.00000000E+00  0.00000000E+00  0.00000000E+00
  0.00000000E+00  0.00000000E+00  0.00000000E+00
  0.00000000E+00  0.00000000E+00  0.00000000E+00
  0.00000000E+00  0.00000000E+00  0.00000000E+00
  0.00000000E+00  0.00000000E+00  0.00000000E+00
  0.00000000E+00  0.00000000E+00  0.00000000E+00
  0.00000000E+00  0.00000000E+00  0.00000000E+00
  0.00000000E+00  0.00000000E+00  0.00000000E+00
  0.00000000E+00  0.00000000E+00  0.00000000E+00
  0.00000000E+00  0.00000000E+00  0.00000000E+00
  0.00000000E+00  0.00000000E+00  0.00000000E+00
  0.00000000E+00  0.00000000E+00  0.00000000E+00
  0.00000000E+00  0.00000000E+00  0.00000000E+00
  0.00000000E+00  0.00000000E+00  0.00000000E+00
  0.00000000E+00  0.00000000E+00  0.00000000E+00
  0.00000000E+00  0.00000000E+00  0.00000000E+00
  0.00000000E+00  0.00000000E+00  0.00000000E+00
  0.00000000E+00  0.00000000E+00  0.00000000E+00
  0.00000000E+00  0.00000000E+00  0.00000000E+00
  0.00000000E+00  0.00000000E+00  0.00000000E+00
  0.00000000E+00  0.00000000E+00  0.00000000E+00
  0.00000000E+00  0.00000000E+00  0.00000000E+00
