Generated by VASPKIT code
 1.000000
   15.4643001556000002    0.0000000000000000    0.0000000000000000
   -7.7321500778000001   13.3924767864999996    0.0000000000000000
    0.0000000000000000    0.0000000000000000   21.0482006073000001
   Ce   O    Ir
    32   114     6
Selective Dynamics
Direct
    0.0000000000000000    0.0000000000000000    0.4599300000000000    T  T  T    Ce001
    0.1666700000000000    0.0833300000000000    0.3099600000000000    F  F  F    Ce002
    0.2500000000000000    0.0000000000000000    0.4599300000000000    T  T  T    Ce003
    0.4166700000000000    0.0833300000000000    0.3099600000000000    F  F  F    Ce004
    0.5000000000000000    0.0000000000000000    0.4599300000000000    T  T  T    Ce005
    0.6666700000000000    0.0833300000000000    0.3099600000000000    F  F  F    Ce006
    0.7500000000000000    0.0000000000000000    0.4599300000000000    T  T  T    Ce007
    0.9166700000000000    0.0833300000000000    0.3099600000000000    F  F  F    Ce008
    0.0000000000000000    0.2500000000000000    0.4599300000000000    T  T  T    Ce009
    0.1666700000000000    0.3333300000000000    0.3099600000000000    F  F  F    Ce010
    0.2500000000000000    0.2500000000000000    0.4599300000000000    T  T  T    Ce011
    0.4166700000000000    0.3333300000000000    0.3099600000000000    F  F  F    Ce012
    0.5000000000000000    0.2500000000000000    0.4599300000000000    T  T  T    Ce013
    0.6666700000000000    0.3333300000000000    0.3099600000000000    F  F  F    Ce014
    0.7500000000000000    0.2500000000000000    0.4599300000000000    T  T  T    Ce015
    0.9166700000000000    0.3333300000000000    0.3099600000000000    F  F  F    Ce016
    0.0000000000000000    0.5000000000000000    0.4599300000000000    T  T  T    Ce017
    0.1666700000000000    0.5833300000000000    0.3099600000000000    F  F  F    Ce018
    0.2500000000000000    0.5000000000000000    0.4599300000000000    T  T  T    Ce019
    0.4166700000000000    0.5833300000000000    0.3099600000000000    F  F  F    Ce020
    0.5000000000000000    0.5000000000000000    0.4599300000000000    T  T  T    Ce021
    0.6666700000000000    0.5833300000000000    0.3099600000000000    F  F  F    Ce022
    0.7500000000000000    0.5000000000000000    0.4599300000000000    T  T  T    Ce023
    0.9166700000000000    0.5833300000000000    0.3099600000000000    F  F  F    Ce024
    0.0000000000000000    0.7500000000000000    0.4599300000000000    T  T  T    Ce025
    0.1666700000000000    0.8333300000000000    0.3099600000000000    F  F  F    Ce026
    0.2500000000000000    0.7500000000000000    0.4599300000000000    T  T  T    Ce027
    0.4166700000000000    0.8333300000000000    0.3099600000000000    F  F  F    Ce028
    0.5000000000000000    0.7500000000000000    0.4599300000000000    T  T  T    Ce029
    0.6666700000000000    0.8333300000000000    0.3099600000000000    F  F  F    Ce030
    0.7500000000000000    0.7500000000000000    0.4599300000000000    T  T  T    Ce031
    0.9166700000000000    0.8333300000000000    0.3099600000000000    F  F  F    Ce032
    0.0000000000000000    0.0000000000000000    0.5724100000000000    T  T  T     O001
    0.0833300000000000    0.1666700000000000    0.2724700000000000    F  F  F     O002
    0.1666700000000000    0.0833300000000000    0.4224400000000000    T  T  T     O003
    0.0833300000000000    0.1666700000000000    0.4974200000000000    T  T  T     O004
    0.0000000000000000    0.0000000000000000    0.3474500000000000    T  T  T     O005
    0.1666700000000000    0.0833300000000000    0.1974800000000000    F  F  F     O006
    0.2500000000000000    0.0000000000000000    0.5724100000000000    T  T  T     O007
    0.3333300000000000    0.1666700000000000    0.2724700000000000    F  F  F     O008
    0.4166700000000000    0.0833300000000000    0.4224400000000000    T  T  T     O009
    0.3333300000000000    0.1666700000000000    0.4974200000000000    T  T  T     O010
    0.2500000000000000    0.0000000000000000    0.3474500000000000    T  T  T     O011
    0.4166700000000000    0.0833300000000000    0.1974800000000000    F  F  F     O012
    0.5000000000000000    0.0000000000000000    0.5724100000000000    T  T  T     O013
    0.5833300000000000    0.1666700000000000    0.2724700000000000    F  F  F     O014
    0.6666700000000000    0.0833300000000000    0.4224400000000000    T  T  T     O015
    0.5833300000000000    0.1666700000000000    0.4974200000000000    T  T  T     O016
    0.5000000000000000    0.0000000000000000    0.3474500000000000    T  T  T     O017
    0.6666700000000000    0.0833300000000000    0.1974800000000000    F  F  F     O018
    0.7500000000000000    0.0000000000000000    0.5724100000000000    T  T  T     O019
    0.8333300000000000    0.1666700000000000    0.2724700000000000    F  F  F     O020
    0.9166700000000000    0.0833300000000000    0.4224400000000000    T  T  T     O021
    0.8333300000000000    0.1666700000000000    0.4974200000000000    T  T  T     O022
    0.7500000000000000    0.0000000000000000    0.3474500000000000    T  T  T     O023
    0.9166700000000000    0.0833300000000000    0.1974800000000000    F  F  F     O024
    0.0000000000000000    0.2500000000000000    0.5724100000000000    T  T  T     O025
    0.0833300000000000    0.4166700000000000    0.2724700000000000    F  F  F     O026
    0.1666700000000000    0.3333300000000000    0.4224400000000000    T  T  T     O027
    0.0833300000000000    0.4166700000000000    0.4974200000000000    T  T  T     O028
    0.0000000000000000    0.2500000000000000    0.3474500000000000    T  T  T     O029
    0.1666700000000000    0.3333300000000000    0.1974800000000000    F  F  F     O030
    0.2500000000000000    0.2500000000000000    0.5724100000000000    T  T  T     O031
    0.3333300000000000    0.4166700000000000    0.2724700000000000    F  F  F     O032
    0.4166700000000000    0.3333300000000000    0.4224400000000000    T  T  T     O033
    0.3333300000000000    0.4166700000000000    0.4974200000000000    T  T  T     O034
    0.2500000000000000    0.2500000000000000    0.3474500000000000    T  T  T     O035
    0.4166700000000000    0.3333300000000000    0.1974800000000000    F  F  F     O036
    0.5000000000000000    0.2500000000000000    0.5724100000000000    T  T  T     O037
    0.5833300000000000    0.4166700000000000    0.2724700000000000    F  F  F     O038
    0.6666700000000000    0.3333300000000000    0.4224400000000000    T  T  T     O039
    0.5833300000000000    0.4166700000000000    0.4974200000000000    T  T  T     O040
    0.5000000000000000    0.2500000000000000    0.3474500000000000    T  T  T     O041
    0.6666700000000000    0.3333300000000000    0.1974800000000000    F  F  F     O042
    0.7500000000000000    0.2500000000000000    0.5724100000000000    T  T  T     O043
    0.8333300000000000    0.4166700000000000    0.2724700000000000    F  F  F     O044
    0.9166700000000000    0.3333300000000000    0.4224400000000000    T  T  T     O045
    0.8333300000000000    0.4166700000000000    0.4974200000000000    T  T  T     O046
    0.7500000000000000    0.2500000000000000    0.3474500000000000    T  T  T     O047
    0.9166700000000000    0.3333300000000000    0.1974800000000000    F  F  F     O048
    0.0000000000000000    0.5000000000000000    0.5724100000000000    T  T  T     O049
    0.0833300000000000    0.6666700000000000    0.2724700000000000    F  F  F     O050
    0.1666700000000000    0.5833300000000000    0.4224400000000000    T  T  T     O051
    0.0833300000000000    0.6666700000000000    0.4974200000000000    T  T  T     O052
    0.0000000000000000    0.5000000000000000    0.3474500000000000    T  T  T     O053
    0.1666700000000000    0.5833300000000000    0.1974800000000000    F  F  F     O054
    0.2500000000000000    0.5000000000000000    0.5724100000000000    T  T  T     O055
    0.3333300000000000    0.6666700000000000    0.2724700000000000    F  F  F     O056
    0.4166700000000000    0.5833300000000000    0.4224400000000000    T  T  T     O057
    0.3333300000000000    0.6666700000000000    0.4974200000000000    T  T  T     O058
    0.2500000000000000    0.5000000000000000    0.3474500000000000    T  T  T     O059
    0.4166700000000000    0.5833300000000000    0.1974800000000000    F  F  F     O060
    0.5000000000000000    0.5000000000000000    0.5724100000000000    T  T  T     O061
    0.5833300000000000    0.6666700000000000    0.2724700000000000    F  F  F     O062
    0.6666700000000000    0.5833300000000000    0.4224400000000000    T  T  T     O063
    0.5833300000000000    0.6666700000000000    0.4974200000000000    T  T  T     O064
    0.5000000000000000    0.5000000000000000    0.3474500000000000    T  T  T     O065
    0.6666700000000000    0.5833300000000000    0.1974800000000000    F  F  F     O066
    0.7500000000000000    0.5000000000000000    0.5724100000000000    T  T  T     O067
    0.8333300000000000    0.6666700000000000    0.2724700000000000    F  F  F     O068
    0.9166700000000000    0.5833300000000000    0.4224400000000000    T  T  T     O069
    0.8333300000000000    0.6666700000000000    0.4974200000000000    T  T  T     O070
    0.7500000000000000    0.5000000000000000    0.3474500000000000    T  T  T     O071
    0.9166700000000000    0.5833300000000000    0.1974800000000000    F  F  F     O072
    0.0000000000000000    0.7500000000000000    0.5724100000000000    T  T  T     O073
    0.0833300000000000    0.9166700000000000    0.2724700000000000    F  F  F     O074
    0.1666700000000000    0.8333300000000000    0.4224400000000000    T  T  T     O075
    0.0833300000000000    0.9166700000000000    0.4974200000000000    T  T  T     O076
    0.0000000000000000    0.7500000000000000    0.3474500000000000    T  T  T     O077
    0.1666700000000000    0.8333300000000000    0.1974800000000000    F  F  F     O078
    0.2500000000000000    0.7500000000000000    0.5724100000000000    T  T  T     O079
    0.3333300000000000    0.9166700000000000    0.2724700000000000    F  F  F     O080
    0.4166700000000000    0.8333300000000000    0.4224400000000000    T  T  T     O081
    0.3333300000000000    0.9166700000000000    0.4974200000000000    T  T  T     O082
    0.2500000000000000    0.7500000000000000    0.3474500000000000    T  T  T     O083
    0.4166700000000000    0.8333300000000000    0.1974800000000000    F  F  F     O084
    0.5000000000000000    0.7500000000000000    0.5724100000000000    T  T  T     O085
    0.5833300000000000    0.9166700000000000    0.2724700000000000    F  F  F     O086
    0.6666700000000000    0.8333300000000000    0.4224400000000000    T  T  T     O087
    0.5833300000000000    0.9166700000000000    0.4974200000000000    T  T  T     O088
    0.5000000000000000    0.7500000000000000    0.3474500000000000    T  T  T     O089
    0.6666700000000000    0.8333300000000000    0.1974800000000000    F  F  F     O090
    0.7500000000000000    0.7500000000000000    0.5724100000000000    T  T  T     O091
    0.8333300000000000    0.9166700000000000    0.2724700000000000    F  F  F     O092
    0.9166700000000000    0.8333300000000000    0.4224400000000000    T  T  T     O093
    0.8333300000000000    0.9166700000000000    0.4974200000000000    T  T  T     O094
    0.7500000000000000    0.7500000000000000    0.3474500000000000    T  T  T     O095
    0.9166700000000000    0.8333300000000000    0.1974800000000000    F  F  F     O096
    0.5833300000000000    0.4231300000000000    0.6447100000000000    T  T  T     O097
    0.3333300000000000    0.6731300000000000    0.6447100000000000    T  T  T     O098
    0.8333300000000000    0.6731300000000000    0.6447100000000000    T  T  T     O099
    0.5833300000000000    0.9231300000000000    0.6447100000000000    T  T  T     O100
    0.6727400000000000    0.3352800000000000    0.6483200000000000    T  T  T     O101
    0.4227400000000000    0.5852800000000000    0.6483200000000000    T  T  T     O102
    0.9227400000000000    0.5852800000000000    0.6483200000000000    T  T  T     O103
    0.6727400000000000    0.8352800000000000    0.6483200000000000    T  T  T     O104
    0.6745600000000000    0.3334200000000000    0.5016600000000000    T  T  T     O105
    0.4245600000000000    0.5834200000000000    0.5016600000000000    T  T  T     O106
    0.9245600000000000    0.5834200000000000    0.5016600000000000    T  T  T     O107
    0.6745600000000000    0.8334200000000000    0.5016600000000000    T  T  T     O108
    0.3294600000000000    0.1733300000000000    0.6447100000000000    T  T  T     O109
    0.0794600000000000    0.4233300000000000    0.6447100000000000    T  T  T     O110
    0.4188700000000000    0.0854800000000000    0.6483200000000000    T  T  T     O111
    0.1688700000000000    0.3354800000000000    0.6483200000000000    T  T  T     O112
    0.4206900000000000    0.0836100000000000    0.5016600000000000    T  T  T     O113
    0.1706900000000000    0.3336100000000000    0.5016600000000000    T  T  T     O114
    0.6275500000000001    0.8717100000000000    0.5724100000000000    T  T  T    Ir001
    0.3829000000000000    0.6317600000000000    0.5724100000000000    T  T  T    Ir002
    0.8837500000000000    0.6282000000000000    0.5724100000000000    T  T  T    Ir003
    0.6390900000000000    0.3882400000000000    0.5724100000000000    T  T  T    Ir004
    0.1290200000000000    0.3819600000000000    0.5724100000000000    T  T  T    Ir005
    0.3852200000000000    0.1384400000000000    0.5724100000000000    T  T  T    Ir006
