CeO2\(1\1\1)_44_vO\(2)
1.0
       15.4643001556         0.0000000000         0.0000000000
       -7.7321500778        13.3924767865         0.0000000000
        0.0000000000         0.0000000000        21.0482006073
   Ce    O   Ir
   32  114    6
Direct
     0.000000000         0.000000000         0.459930000
     0.166670000         0.083330000         0.309960000
     0.250000000         0.000000000         0.459930000
     0.416670000         0.083330000         0.309960000
     0.500000000         0.000000000         0.459930000
     0.666670000         0.083330000         0.309960000
     0.750000000         0.000000000         0.459930000
     0.916670000         0.083330000         0.309960000
     0.000000000         0.250000000         0.459930000
     0.166670000         0.333330000         0.309960000
     0.250000000         0.250000000         0.459930000
     0.416670000         0.333330000         0.309960000
     0.500000000         0.250000000         0.459930000
     0.666670000         0.333330000         0.309960000
     0.750000000         0.250000000         0.459930000
     0.916670000         0.333330000         0.309960000
     0.000000000         0.500000000         0.459930000
     0.166670000         0.583330000         0.309960000
     0.250000000         0.500000000         0.459930000
     0.416670000         0.583330000         0.309960000
     0.500000000         0.500000000         0.459930000
     0.666670000         0.583330000         0.309960000
     0.750000000         0.500000000         0.459930000
     0.916670000         0.583330000         0.309960000
     0.000000000         0.750000000         0.459930000
     0.166670000         0.833330000         0.309960000
     0.250000000         0.750000000         0.459930000
     0.416670000         0.833330000         0.309960000
     0.500000000         0.750000000         0.459930000
     0.666670000         0.833330000         0.309960000
     0.750000000         0.750000000         0.459930000
     0.916670000         0.833330000         0.309960000
     0.000000000         0.000000000         0.572410000
     0.083330000         0.166670000         0.272470000
     0.166670000         0.083330000         0.422440000
     0.083330000         0.166670000         0.497420000
     0.000000000         0.000000000         0.347450000
     0.166670000         0.083330000         0.197480000
     0.250000000         0.000000000         0.572410000
     0.333330000         0.166670000         0.272470000
     0.416670000         0.083330000         0.422440000
     0.333330000         0.166670000         0.497420000
     0.250000000         0.000000000         0.347450000
     0.416670000         0.083330000         0.197480000
     0.500000000         0.000000000         0.572410000
     0.583330000         0.166670000         0.272470000
     0.666670000         0.083330000         0.422440000
     0.583330000         0.166670000         0.497420000
     0.500000000         0.000000000         0.347450000
     0.666670000         0.083330000         0.197480000
     0.750000000         0.000000000         0.572410000
     0.833330000         0.166670000         0.272470000
     0.916670000         0.083330000         0.422440000
     0.833330000         0.166670000         0.497420000
     0.750000000         0.000000000         0.347450000
     0.916670000         0.083330000         0.197480000
     0.000000000         0.250000000         0.572410000
     0.083330000         0.416670000         0.272470000
     0.166670000         0.333330000         0.422440000
     0.083330000         0.416670000         0.497420000
     0.000000000         0.250000000         0.347450000
     0.166670000         0.333330000         0.197480000
     0.250000000         0.250000000         0.572410000
     0.333330000         0.416670000         0.272470000
     0.416670000         0.333330000         0.422440000
     0.333330000         0.416670000         0.497420000
     0.250000000         0.250000000         0.347450000
     0.416670000         0.333330000         0.197480000
     0.500000000         0.250000000         0.572410000
     0.583330000         0.416670000         0.272470000
     0.666670000         0.333330000         0.422440000
     0.583330000         0.416670000         0.497420000
     0.500000000         0.250000000         0.347450000
     0.666670000         0.333330000         0.197480000
     0.750000000         0.250000000         0.572410000
     0.833330000         0.416670000         0.272470000
     0.916670000         0.333330000         0.422440000
     0.833330000         0.416670000         0.497420000
     0.750000000         0.250000000         0.347450000
     0.916670000         0.333330000         0.197480000
     0.000000000         0.500000000         0.572410000
     0.083330000         0.666670000         0.272470000
     0.166670000         0.583330000         0.422440000
     0.083330000         0.666670000         0.497420000
     0.000000000         0.500000000         0.347450000
     0.166670000         0.583330000         0.197480000
     0.250000000         0.500000000         0.572410000
     0.333330000         0.666670000         0.272470000
     0.416670000         0.583330000         0.422440000
     0.333330000         0.666670000         0.497420000
     0.250000000         0.500000000         0.347450000
     0.416670000         0.583330000         0.197480000
     0.500000000         0.500000000         0.572410000
     0.583330000         0.666670000         0.272470000
     0.666670000         0.583330000         0.422440000
     0.583330000         0.666670000         0.497420000
     0.500000000         0.500000000         0.347450000
     0.666670000         0.583330000         0.197480000
     0.750000000         0.500000000         0.572410000
     0.833330000         0.666670000         0.272470000
     0.916670000         0.583330000         0.422440000
     0.833330000         0.666670000         0.497420000
     0.750000000         0.500000000         0.347450000
     0.916670000         0.583330000         0.197480000
     0.000000000         0.750000000         0.572410000
     0.083330000         0.916670000         0.272470000
     0.166670000         0.833330000         0.422440000
     0.083330000         0.916670000         0.497420000
     0.000000000         0.750000000         0.347450000
     0.166670000         0.833330000         0.197480000
     0.250000000         0.750000000         0.572410000
     0.333330000         0.916670000         0.272470000
     0.416670000         0.833330000         0.422440000
     0.333330000         0.916670000         0.497420000
     0.250000000         0.750000000         0.347450000
     0.416670000         0.833330000         0.197480000
     0.500000000         0.750000000         0.572410000
     0.583330000         0.916670000         0.272470000
     0.666670000         0.833330000         0.422440000
     0.583330000         0.916670000         0.497420000
     0.500000000         0.750000000         0.347450000
     0.666670000         0.833330000         0.197480000
     0.750000000         0.750000000         0.572410000
     0.833330000         0.916670000         0.272470000
     0.916670000         0.833330000         0.422440000
     0.833330000         0.916670000         0.497420000
     0.750000000         0.750000000         0.347450000
     0.916670000         0.833330000         0.197480000
     0.583330000         0.423130000         0.644710000
     0.333330000         0.673130000         0.644710000
     0.833330000         0.673130000         0.644710000
     0.583330000         0.923130000         0.644710000
     0.672740000         0.335280000         0.648320000
     0.422740000         0.585280000         0.648320000
     0.922740000         0.585280000         0.648320000
     0.672740000         0.835280000         0.648320000
     0.674560000         0.333420000         0.501660000
     0.424560000         0.583420000         0.501660000
     0.924560000         0.583420000         0.501660000
     0.674560000         0.833420000         0.501660000
     0.329460000         0.173330000         0.644710000
     0.079460000         0.423330000         0.644710000
     0.418870000         0.085480000         0.648320000
     0.168870000         0.335480000         0.648320000
     0.420690000         0.083610000         0.501660000
     0.170690000         0.333610000         0.501660000
     0.627550000         0.871710000         0.572410000
     0.382900000         0.631760000         0.572410000
     0.883750000         0.628200000         0.572410000
     0.639090000         0.388240000         0.572410000
     0.129020000         0.381960000         0.572410000
     0.385220000         0.138440000         0.572410000
