Generated by VASPKIT code               
   1.00000000000000     
    11.5981998443999998    0.0000000000000000    0.0000000000000000
    -5.7990999221999999   10.0443357033999998    0.0000000000000000
     0.0000000000000000    0.0000000000000000   21.0482006073000001
  Ce              O               Ir            
    18    45     7
Selective dynamics
Direct
  0.0033778804449287  0.9969493855250479  0.4590738961328301   T   T   T
  0.2222200000000001  0.1111099999999965  0.3099599999999967   F   F   F
  0.3260106142582729  0.9969525569130062  0.4615962289848353   T   T   T
  0.5555599999999998  0.1111099999999965  0.3099599999999967   F   F   F
  0.6697034099131514  0.0055486776374101  0.4642589849282721   T   T   T
  0.8888900000000035  0.1111099999999965  0.3099599999999967   F   F   F
  0.9945435082537205  0.3303560270890989  0.4641292832263795   T   T   T
  0.2222200000000001  0.4444400000000002  0.3099599999999967   F   F   F
  0.3326324859438118  0.3337053316855551  0.4586766202383717   T   T   T
  0.5555599999999998  0.4444400000000002  0.3099599999999967   F   F   F
  0.6712920859583630  0.3287930962635720  0.4566313781087944   T   T   T
  0.8888900000000035  0.4444400000000002  0.3099599999999967   F   F   F
  0.0032317607350535  0.6741182831585627  0.4616107833667424   T   T   T
  0.2222200000000001  0.7777799999999999  0.3099599999999967   F   F   F
  0.3342215208511216  0.6658718968235927  0.4598812932931238   T   T   T
  0.5555599999999998  0.7777799999999999  0.3099599999999967   F   F   F
  0.6664376989392735  0.6674021244529071  0.4589724041601178   T   T   T
  0.8888900000000035  0.7777799999999999  0.3099599999999967   F   F   F
  0.0074368477175428  0.9933727492386015  0.5822739641736296   T   T   T
  0.1111099999999965  0.2222200000000001  0.2724699999999984   F   F   F
  0.2267427405836197  0.1179474382720799  0.4215874549408408   T   T   T
  0.1092055102946364  0.2184527002512266  0.5035348061090681   T   T   T
  0.0000000000000000  0.0000000000000000  0.3474500000000020   F   F   F
  0.3367551729551000  0.0303858114380037  0.5793388761573075   T   T   T
  0.4444400000000002  0.2222200000000001  0.2724699999999984   F   F   F
  0.5502040365231614  0.1072500979928764  0.4220268001392916   T   T   T
  0.4539368773275204  0.2352951728861537  0.5010601473265056   T   T   T
  0.3333299999999966  0.0000000000000000  0.3474500000000020   F   F   F
  0.6437606705267257  0.9831590327209577  0.5785466686430710   T   T   T
  0.7777799999999999  0.2222200000000001  0.2724699999999984   F   F   F
  0.8918401363731152  0.1084910104577617  0.4235704260056913   T   T   T
  0.7777241790247333  0.2222070385215042  0.4902838189700894   T   T   T
  0.6666700000000034  0.0000000000000000  0.3474500000000020   F   F   F
  0.0167363951042242  0.3562040557646203  0.5785536158416167   T   T   T
  0.1111099999999965  0.5555599999999998  0.2724699999999984   F   F   F
  0.2177239855739019  0.4340627254746704  0.4229783490160867   T   T   T
  0.1079931795477508  0.5613717501411309  0.5023920037375849   T   T   T
  0.0000000000000000  0.3333299999999966  0.3474500000000020   F   F   F
  0.3176310980069928  0.3466997698212949  0.5938522123623912   T   T   T
  0.4444400000000002  0.5555599999999998  0.2724699999999984   F   F   F
  0.5549143653162159  0.4455534218420608  0.4206031206977362   T   T   T
  0.4471022774208861  0.5521423013295251  0.5031926090933375   T   T   T
  0.3333299999999966  0.3333299999999966  0.3474500000000020   F   F   F
  0.6602601495256952  0.3400065040589247  0.5914355912786897   T   T   T
  0.7777799999999999  0.5555599999999998  0.2724699999999984   F   F   F
  0.8927363903583200  0.4496364203773072  0.4219436457287868   T   T   T
  0.7653036536050422  0.5459109718355879  0.5010929298012274   T   T   T
  0.6666700000000034  0.3333299999999966  0.3474500000000020   F   F   F
  0.9709237186450783  0.6625107710242216  0.5792022964450104   T   T   T
  0.1111099999999965  0.8888900000000035  0.2724699999999984   F   F   F
  0.2207906673648226  0.7793877992370998  0.4213471921708007   T   T   T
  0.1107554999010237  0.8893940856289696  0.4878238385942673   T   T   T
  0.0000000000000000  0.6666700000000034  0.3474500000000020   F   F   F
  0.3061454595043562  0.6939187744899336  0.5969705545439179   T   T   T
  0.4444400000000002  0.8888900000000035  0.2724699999999984   F   F   F
  0.5660768820524613  0.7821731359736904  0.4231836854780088   T   T   T
  0.4384730548577809  0.8921868020792464  0.5025429932319019   T   T   T
  0.3333299999999966  0.6666700000000034  0.3474500000000020   F   F   F
  0.6545299923168195  0.6806149578790467  0.5915229866263507   T   T   T
  0.7777799999999999  0.8888900000000035  0.2724699999999984   F   F   F
  0.8820564964307350  0.7733290505671591  0.4216869126229148   T   T   T
  0.7821655981357307  0.8918691313744715  0.5034266272300668   T   T   T
  0.6666700000000034  0.6666700000000034  0.3474500000000020   F   F   F
  0.4853025965167410  0.5137508188925648  0.5879783296665984   T   T   T
  0.1606994406779079  0.1721130631594835  0.5838601753514776   T   T   T
  0.4941138873548588  0.1846518310416612  0.5827227960020239   T   T   T
  0.8163410702912131  0.5057094289940179  0.5826394112423908   T   T   T
  0.8285660713840491  0.8397239076870233  0.5835496557735165   T   T   T
  0.4739218259280942  0.8458505132986085  0.5863172791914770   T   T   T
  0.1540001966131600  0.5258608612688219  0.5861863519993221   T   T   T
 
  0.00000000E+00  0.00000000E+00  0.00000000E+00
  0.00000000E+00  0.00000000E+00  0.00000000E+00
  0.00000000E+00  0.00000000E+00  0.00000000E+00
  0.00000000E+00  0.00000000E+00  0.00000000E+00
  0.00000000E+00  0.00000000E+00  0.00000000E+00
  0.00000000E+00  0.00000000E+00  0.00000000E+00
  0.00000000E+00  0.00000000E+00  0.00000000E+00
  0.00000000E+00  0.00000000E+00  0.00000000E+00
  0.00000000E+00  0.00000000E+00  0.00000000E+00
  0.00000000E+00  0.00000000E+00  0.00000000E+00
  0.00000000E+00  0.00000000E+00  0.00000000E+00
  0.00000000E+00  0.00000000E+00  0.00000000E+00
  0.00000000E+00  0.00000000E+00  0.00000000E+00
  0.00000000E+00  0.00000000E+00  0.00000000E+00
  0.00000000E+00  0.00000000E+00  0.00000000E+00
  0.00000000E+00  0.00000000E+00  0.00000000E+00
  0.00000000E+00  0.00000000E+00  0.00000000E+00
  0.00000000E+00  0.00000000E+00  0.00000000E+00
  0.00000000E+00  0.00000000E+00  0.00000000E+00
  0.00000000E+00  0.00000000E+00  0.00000000E+00
  0.00000000E+00  0.00000000E+00  0.00000000E+00
  0.00000000E+00  0.00000000E+00  0.00000000E+00
  0.00000000E+00  0.00000000E+00  0.00000000E+00
  0.00000000E+00  0.00000000E+00  0.00000000E+00
  0.00000000E+00  0.00000000E+00  0.00000000E+00
  0.00000000E+00  0.00000000E+00  0.00000000E+00
  0.00000000E+00  0.00000000E+00  0.00000000E+00
  0.00000000E+00  0.00000000E+00  0.00000000E+00
  0.00000000E+00  0.00000000E+00  0.00000000E+00
  0.00000000E+00  0.00000000E+00  0.00000000E+00
  0.00000000E+00  0.00000000E+00  0.00000000E+00
  0.00000000E+00  0.00000000E+00  0.00000000E+00
  0.00000000E+00  0.00000000E+00  0.00000000E+00
  0.00000000E+00  0.00000000E+00  0.00000000E+00
  0.00000000E+00  0.00000000E+00  0.00000000E+00
  0.00000000E+00  0.00000000E+00  0.00000000E+00
  0.00000000E+00  0.00000000E+00  0.00000000E+00
  0.00000000E+00  0.00000000E+00  0.00000000E+00
  0.00000000E+00  0.00000000E+00  0.00000000E+00
  0.00000000E+00  0.00000000E+00  0.00000000E+00
  0.00000000E+00  0.00000000E+00  0.00000000E+00
  0.00000000E+00  0.00000000E+00  0.00000000E+00
  0.00000000E+00  0.00000000E+00  0.00000000E+00
  0.00000000E+00  0.00000000E+00  0.00000000E+00
  0.00000000E+00  0.00000000E+00  0.00000000E+00
  0.00000000E+00  0.00000000E+00  0.00000000E+00
  0.00000000E+00  0.00000000E+00  0.00000000E+00
  0.00000000E+00  0.00000000E+00  0.00000000E+00
  0.00000000E+00  0.00000000E+00  0.00000000E+00
  0.00000000E+00  0.00000000E+00  0.00000000E+00
  0.00000000E+00  0.00000000E+00  0.00000000E+00
  0.00000000E+00  0.00000000E+00  0.00000000E+00
  0.00000000E+00  0.00000000E+00  0.00000000E+00
  0.00000000E+00  0.00000000E+00  0.00000000E+00
  0.00000000E+00  0.00000000E+00  0.00000000E+00
  0.00000000E+00  0.00000000E+00  0.00000000E+00
  0.00000000E+00  0.00000000E+00  0.00000000E+00
  0.00000000E+00  0.00000000E+00  0.00000000E+00
  0.00000000E+00  0.00000000E+00  0.00000000E+00
  0.00000000E+00  0.00000000E+00  0.00000000E+00
  0.00000000E+00  0.00000000E+00  0.00000000E+00
  0.00000000E+00  0.00000000E+00  0.00000000E+00
  0.00000000E+00  0.00000000E+00  0.00000000E+00
  0.00000000E+00  0.00000000E+00  0.00000000E+00
  0.00000000E+00  0.00000000E+00  0.00000000E+00
  0.00000000E+00  0.00000000E+00  0.00000000E+00
  0.00000000E+00  0.00000000E+00  0.00000000E+00
  0.00000000E+00  0.00000000E+00  0.00000000E+00
  0.00000000E+00  0.00000000E+00  0.00000000E+00
  0.00000000E+00  0.00000000E+00  0.00000000E+00
