Generated by VASPKIT code               
   1.00000000000000     
    11.5981998443999998    0.0000000000000000    0.0000000000000000
    -5.7990999221999999   10.0443357033999998    0.0000000000000000
     0.0000000000000000    0.0000000000000000   21.0482006073000001
  Ce              O               Ir            
    18    45     7
Selective dynamics
Direct
  0.0052127429431362  0.9960179653215504  0.4588470937495290   T   T   T
  0.2222200000000001  0.1111099999999965  0.3099599999999967   F   F   F
  0.3279124406582064  0.9934054598069584  0.4613527711624206   T   T   T
  0.5555599999999998  0.1111099999999965  0.3099599999999967   F   F   F
  0.6703296280104846  0.0029527160743353  0.4622207955017800   T   T   T
  0.8888900000000035  0.1111099999999965  0.3099599999999967   F   F   F
  0.9965543508851030  0.3293916366683488  0.4623969461285575   T   T   T
  0.2222200000000001  0.4444400000000002  0.3099599999999967   F   F   F
  0.3357222212312397  0.3320611780414250  0.4584761973937744   T   T   T
  0.5555599999999998  0.4444400000000002  0.3099599999999967   F   F   F
  0.6731296659443200  0.3271226764074436  0.4560142900030810   T   T   T
  0.8888900000000035  0.4444400000000002  0.3099599999999967   F   F   F
  0.0064321054376680  0.6726292181141682  0.4612591124147922   T   T   T
  0.2222200000000001  0.7777799999999999  0.3099599999999967   F   F   F
  0.3368744981063203  0.6623981818444318  0.4593448402786278   T   T   T
  0.5555599999999998  0.7777799999999999  0.3099599999999967   F   F   F
  0.6686415969961285  0.6652184672771139  0.4589300888679841   T   T   T
  0.8888900000000035  0.7777799999999999  0.3099599999999967   F   F   F
  0.0042536493493412  0.9981782107736973  0.5864852642390626   T   T   T
  0.1111099999999965  0.2222200000000001  0.2724699999999984   F   F   F
  0.2295896659139764  0.1169631426712061  0.4210909317295518   T   T   T
  0.1105917139229874  0.2160497784368702  0.5021657686983118   T   T   T
  0.0000000000000000  0.0000000000000000  0.3474500000000020   F   F   F
  0.3461588757741920  0.0212229120967678  0.5791345192404813   T   T   T
  0.4444400000000002  0.2222200000000001  0.2724699999999984   F   F   F
  0.5487321620626788  0.1037205156009836  0.4212451067784747   T   T   T
  0.4567968779547962  0.2315749819394599  0.5003674877966007   T   T   T
  0.3333299999999966  0.0000000000000000  0.3474500000000020   F   F   F
  0.6478039927896546  0.9851227661773672  0.5786695688114525   T   T   T
  0.7777799999999999  0.2222200000000001  0.2724699999999984   F   F   F
  0.8935810125965069  0.1072836457067894  0.4223105163293969   T   T   T
  0.7791158254899989  0.2207052797588967  0.4857195677817258   T   T   T
  0.6666700000000034  0.0000000000000000  0.3474500000000020   F   F   F
  0.0129520036659128  0.3509298179728799  0.5786543213190672   T   T   T
  0.1111099999999965  0.5555599999999998  0.2724699999999984   F   F   F
  0.2180644697028533  0.4311774350130456  0.4226297813553076   T   T   T
  0.1129604512333641  0.5594093567890266  0.5017576712236455   T   T   T
  0.0000000000000000  0.3333299999999966  0.3474500000000020   F   F   F
  0.3282338649780079  0.3392236281712436  0.5876342431128379   T   T   T
  0.4444400000000002  0.5555599999999998  0.2724699999999984   F   F   F
  0.5564913795660086  0.4442028810343809  0.4198772917941203   T   T   T
  0.4504821341810331  0.5500844876748362  0.5018321084989882   T   T   T
  0.3333299999999966  0.3333299999999966  0.3474500000000020   F   F   F
  0.6644119018335044  0.3361095863400522  0.5887209664676870   T   T   T
  0.7777799999999999  0.5555599999999998  0.2724699999999984   F   F   F
  0.8962119709042862  0.4510800256795331  0.4209979537213999   T   T   T
  0.7687510637516548  0.5430285612325623  0.5004643616022740   T   T   T
  0.6666700000000034  0.3333299999999966  0.3474500000000020   F   F   F
  0.9768520740409480  0.6564963534674988  0.5795259573549435   T   T   T
  0.1111099999999965  0.8888900000000035  0.2724699999999984   F   F   F
  0.2218899041555597  0.7776227966461913  0.4211811448629065   T   T   T
  0.1115105624112535  0.8891751391713819  0.4868809627805990   T   T   T
  0.0000000000000000  0.6666700000000034  0.3474500000000020   F   F   F
  0.3204128490475330  0.6784068720953561  0.5913843033509479   T   T   T
  0.4444400000000002  0.8888900000000035  0.2724699999999984   F   F   F
  0.5688001726615334  0.7816151285182132  0.4228181727046194   T   T   T
  0.4401837737714767  0.8857443305275399  0.5015080975401114   T   T   T
  0.3333299999999966  0.6666700000000034  0.3474500000000020   F   F   F
  0.6631443819485174  0.6755291430004686  0.5862725283009437   T   T   T
  0.7777799999999999  0.8888900000000035  0.2724699999999984   F   F   F
  0.8835424477313442  0.7712325982605114  0.4213785449604424   T   T   T
  0.7854756766040406  0.8915083927120081  0.5018821084686914   T   T   T
  0.6666700000000034  0.6666700000000034  0.3474500000000020   F   F   F
  0.4956096835075693  0.5060639424194079  0.5841447753502489   T   T   T
  0.1625807880252778  0.1709871745524110  0.5824424318413334   T   T   T
  0.4995488762752897  0.1787919429907746  0.5808129643161875   T   T   T
  0.8220060852863427  0.5009598182996714  0.5808591958438226   T   T   T
  0.8306498447545968  0.8415156330951514  0.5826250380457059   T   T   T
  0.4838770349065732  0.8379876242063032  0.5831617860451646   T   T   T
  0.1603953040795518  0.5148295523310135  0.5831010711501787   T   T   T
 
  0.00000000E+00  0.00000000E+00  0.00000000E+00
  0.00000000E+00  0.00000000E+00  0.00000000E+00
  0.00000000E+00  0.00000000E+00  0.00000000E+00
  0.00000000E+00  0.00000000E+00  0.00000000E+00
  0.00000000E+00  0.00000000E+00  0.00000000E+00
  0.00000000E+00  0.00000000E+00  0.00000000E+00
  0.00000000E+00  0.00000000E+00  0.00000000E+00
  0.00000000E+00  0.00000000E+00  0.00000000E+00
  0.00000000E+00  0.00000000E+00  0.00000000E+00
  0.00000000E+00  0.00000000E+00  0.00000000E+00
  0.00000000E+00  0.00000000E+00  0.00000000E+00
  0.00000000E+00  0.00000000E+00  0.00000000E+00
  0.00000000E+00  0.00000000E+00  0.00000000E+00
  0.00000000E+00  0.00000000E+00  0.00000000E+00
  0.00000000E+00  0.00000000E+00  0.00000000E+00
  0.00000000E+00  0.00000000E+00  0.00000000E+00
  0.00000000E+00  0.00000000E+00  0.00000000E+00
  0.00000000E+00  0.00000000E+00  0.00000000E+00
  0.00000000E+00  0.00000000E+00  0.00000000E+00
  0.00000000E+00  0.00000000E+00  0.00000000E+00
  0.00000000E+00  0.00000000E+00  0.00000000E+00
  0.00000000E+00  0.00000000E+00  0.00000000E+00
  0.00000000E+00  0.00000000E+00  0.00000000E+00
  0.00000000E+00  0.00000000E+00  0.00000000E+00
  0.00000000E+00  0.00000000E+00  0.00000000E+00
  0.00000000E+00  0.00000000E+00  0.00000000E+00
  0.00000000E+00  0.00000000E+00  0.00000000E+00
  0.00000000E+00  0.00000000E+00  0.00000000E+00
  0.00000000E+00  0.00000000E+00  0.00000000E+00
  0.00000000E+00  0.00000000E+00  0.00000000E+00
  0.00000000E+00  0.00000000E+00  0.00000000E+00
  0.00000000E+00  0.00000000E+00  0.00000000E+00
  0.00000000E+00  0.00000000E+00  0.00000000E+00
  0.00000000E+00  0.00000000E+00  0.00000000E+00
  0.00000000E+00  0.00000000E+00  0.00000000E+00
  0.00000000E+00  0.00000000E+00  0.00000000E+00
  0.00000000E+00  0.00000000E+00  0.00000000E+00
  0.00000000E+00  0.00000000E+00  0.00000000E+00
  0.00000000E+00  0.00000000E+00  0.00000000E+00
  0.00000000E+00  0.00000000E+00  0.00000000E+00
  0.00000000E+00  0.00000000E+00  0.00000000E+00
  0.00000000E+00  0.00000000E+00  0.00000000E+00
  0.00000000E+00  0.00000000E+00  0.00000000E+00
  0.00000000E+00  0.00000000E+00  0.00000000E+00
  0.00000000E+00  0.00000000E+00  0.00000000E+00
  0.00000000E+00  0.00000000E+00  0.00000000E+00
  0.00000000E+00  0.00000000E+00  0.00000000E+00
  0.00000000E+00  0.00000000E+00  0.00000000E+00
  0.00000000E+00  0.00000000E+00  0.00000000E+00
  0.00000000E+00  0.00000000E+00  0.00000000E+00
  0.00000000E+00  0.00000000E+00  0.00000000E+00
  0.00000000E+00  0.00000000E+00  0.00000000E+00
  0.00000000E+00  0.00000000E+00  0.00000000E+00
  0.00000000E+00  0.00000000E+00  0.00000000E+00
  0.00000000E+00  0.00000000E+00  0.00000000E+00
  0.00000000E+00  0.00000000E+00  0.00000000E+00
  0.00000000E+00  0.00000000E+00  0.00000000E+00
  0.00000000E+00  0.00000000E+00  0.00000000E+00
  0.00000000E+00  0.00000000E+00  0.00000000E+00
  0.00000000E+00  0.00000000E+00  0.00000000E+00
  0.00000000E+00  0.00000000E+00  0.00000000E+00
  0.00000000E+00  0.00000000E+00  0.00000000E+00
  0.00000000E+00  0.00000000E+00  0.00000000E+00
  0.00000000E+00  0.00000000E+00  0.00000000E+00
  0.00000000E+00  0.00000000E+00  0.00000000E+00
  0.00000000E+00  0.00000000E+00  0.00000000E+00
  0.00000000E+00  0.00000000E+00  0.00000000E+00
  0.00000000E+00  0.00000000E+00  0.00000000E+00
  0.00000000E+00  0.00000000E+00  0.00000000E+00
  0.00000000E+00  0.00000000E+00  0.00000000E+00
