Generated by VASPKIT code               
   1.00000000000000     
    11.5981998443999998    0.0000000000000000    0.0000000000000000
    -5.7990999221999999   10.0443357033999998    0.0000000000000000
     0.0000000000000000    0.0000000000000000   21.0482006073000001
  Ce              O               Ir            
    18    45     7
Selective dynamics
Direct
  0.0036692814099049  0.9965641007673318  0.4595656972058986   T   T   T
  0.2222200000000001  0.1111099999999965  0.3099599999999967   F   F   F
  0.3260801005188216  0.9961266138870912  0.4620669883622588   T   T   T
  0.5555599999999998  0.1111099999999965  0.3099599999999967   F   F   F
  0.6703230350576694  0.0052925666199753  0.4646791458916593   T   T   T
  0.8888900000000035  0.1111099999999965  0.3099599999999967   F   F   F
  0.9948701032068934  0.3297923858893999  0.4645883084326620   T   T   T
  0.2222200000000001  0.4444400000000002  0.3099599999999967   F   F   F
  0.3332462045350597  0.3332147765649097  0.4588941211405891   T   T   T
  0.5555599999999998  0.4444400000000002  0.3099599999999967   F   F   F
  0.6719214596062132  0.3281991268658015  0.4567490038701315   T   T   T
  0.8888900000000035  0.4444400000000002  0.3099599999999967   F   F   F
  0.0040580669836064  0.6741044210582963  0.4619212198117620   T   T   T
  0.2222200000000001  0.7777799999999999  0.3099599999999967   F   F   F
  0.3347178777285025  0.6653214227140821  0.4598580950763327   T   T   T
  0.5555599999999998  0.7777799999999999  0.3099599999999967   F   F   F
  0.6667841976068456  0.6669650367214559  0.4591347068422367   T   T   T
  0.8888900000000035  0.7777799999999999  0.3099599999999967   F   F   F
  0.0083086893360453  0.9930175173417159  0.5841371063817360   T   T   T
  0.1111099999999965  0.2222200000000001  0.2724699999999984   F   F   F
  0.2272876099256615  0.1173049767767932  0.4221067146674750   T   T   T
  0.1094988819783322  0.2170815266189512  0.5042408508662979   T   T   T
  0.0000000000000000  0.0000000000000000  0.3474500000000020   F   F   F
  0.3388972997275634  0.0284778813101667  0.5790303204278435   T   T   T
  0.4444400000000002  0.2222200000000001  0.2724699999999984   F   F   F
  0.5509849885103908  0.1068912460416767  0.4222198872569576   T   T   T
  0.4554074035389252  0.2351480244212210  0.5017070194038049   T   T   T
  0.3333299999999966  0.0000000000000000  0.3474500000000020   F   F   F
  0.6443322558891674  0.9833057363661315  0.5788229224274155   T   T   T
  0.7777799999999999  0.2222200000000001  0.2724699999999984   F   F   F
  0.8917163949105748  0.1082419003714642  0.4239762199688485   T   T   T
  0.7781735169226683  0.2220505859889046  0.4914079089766474   T   T   T
  0.6666700000000034  0.0000000000000000  0.3474500000000020   F   F   F
  0.0163807073447671  0.3557112330301025  0.5788089892946791   T   T   T
  0.1111099999999965  0.5555599999999998  0.2724699999999984   F   F   F
  0.2173706808645701  0.4325962020583968  0.4232316898365041   T   T   T
  0.1093423309655772  0.5613893414196564  0.5026260453729454   T   T   T
  0.0000000000000000  0.3333299999999966  0.3474500000000020   F   F   F
  0.3198985012574304  0.3453616530241059  0.5934097296431952   T   T   T
  0.4444400000000002  0.5555599999999998  0.2724699999999984   F   F   F
  0.5546101750610843  0.4454643509934608  0.4206746704707997   T   T   T
  0.4473166098104154  0.5520498951224425  0.5034901781203412   T   T   T
  0.3333299999999966  0.3333299999999966  0.3474500000000020   F   F   F
  0.6617775925960078  0.3385050655461335  0.5914511176895964   T   T   T
  0.7777799999999999  0.5555599999999998  0.2724699999999984   F   F   F
  0.8933237913159100  0.4492010798465055  0.4221126687606494   T   T   T
  0.7655259882338069  0.5449869037549733  0.5015429165842573   T   T   T
  0.6666700000000034  0.3333299999999966  0.3474500000000020   F   F   F
  0.9726350786723126  0.6608510557482479  0.5790802171788659   T   T   T
  0.1111099999999965  0.8888900000000035  0.2724699999999984   F   F   F
  0.2205154361336509  0.7795444813708580  0.4212663852170385   T   T   T
  0.1107972032866408  0.8892950287627012  0.4893523983394008   T   T   T
  0.0000000000000000  0.6666700000000034  0.3474500000000020   F   F   F
  0.3086704241275520  0.6912218227143198  0.5965546701830148   T   T   T
  0.4444400000000002  0.8888900000000035  0.2724699999999984   F   F   F
  0.5674694836314165  0.7828066268212990  0.4234033792632656   T   T   T
  0.4384519546728255  0.8907422134023405  0.5027390639421296   T   T   T
  0.3333299999999966  0.6666700000000034  0.3474500000000020   F   F   F
  0.6556365768423972  0.6798933953002159  0.5910391990396872   T   T   T
  0.7777799999999999  0.8888900000000035  0.2724699999999984   F   F   F
  0.8827227584720937  0.7728797151817252  0.4220591038880259   T   T   T
  0.7834258715887448  0.8910588674436334  0.5042237981360453   T   T   T
  0.6666700000000034  0.6666700000000034  0.3474500000000020   F   F   F
  0.4876425128178098  0.5125601186862062  0.5875112046199636   T   T   T
  0.1614284016380238  0.1712754292773482  0.5845327556142544   T   T   T
  0.4959060928261997  0.1828273079490455  0.5826968794589527   T   T   T
  0.8179247889805716  0.5041840243568355  0.5825494078614085   T   T   T
  0.8302558049159720  0.8388299355957785  0.5841434409528267   T   T   T
  0.4754663716089897  0.8443161982467223  0.5861711821379856   T   T   T
  0.1556336547887564  0.5240374999471485  0.5860355377471571   T   T   T
 
  0.00000000E+00  0.00000000E+00  0.00000000E+00
  0.00000000E+00  0.00000000E+00  0.00000000E+00
  0.00000000E+00  0.00000000E+00  0.00000000E+00
  0.00000000E+00  0.00000000E+00  0.00000000E+00
  0.00000000E+00  0.00000000E+00  0.00000000E+00
  0.00000000E+00  0.00000000E+00  0.00000000E+00
  0.00000000E+00  0.00000000E+00  0.00000000E+00
  0.00000000E+00  0.00000000E+00  0.00000000E+00
  0.00000000E+00  0.00000000E+00  0.00000000E+00
  0.00000000E+00  0.00000000E+00  0.00000000E+00
  0.00000000E+00  0.00000000E+00  0.00000000E+00
  0.00000000E+00  0.00000000E+00  0.00000000E+00
  0.00000000E+00  0.00000000E+00  0.00000000E+00
  0.00000000E+00  0.00000000E+00  0.00000000E+00
  0.00000000E+00  0.00000000E+00  0.00000000E+00
  0.00000000E+00  0.00000000E+00  0.00000000E+00
  0.00000000E+00  0.00000000E+00  0.00000000E+00
  0.00000000E+00  0.00000000E+00  0.00000000E+00
  0.00000000E+00  0.00000000E+00  0.00000000E+00
  0.00000000E+00  0.00000000E+00  0.00000000E+00
  0.00000000E+00  0.00000000E+00  0.00000000E+00
  0.00000000E+00  0.00000000E+00  0.00000000E+00
  0.00000000E+00  0.00000000E+00  0.00000000E+00
  0.00000000E+00  0.00000000E+00  0.00000000E+00
  0.00000000E+00  0.00000000E+00  0.00000000E+00
  0.00000000E+00  0.00000000E+00  0.00000000E+00
  0.00000000E+00  0.00000000E+00  0.00000000E+00
  0.00000000E+00  0.00000000E+00  0.00000000E+00
  0.00000000E+00  0.00000000E+00  0.00000000E+00
  0.00000000E+00  0.00000000E+00  0.00000000E+00
  0.00000000E+00  0.00000000E+00  0.00000000E+00
  0.00000000E+00  0.00000000E+00  0.00000000E+00
  0.00000000E+00  0.00000000E+00  0.00000000E+00
  0.00000000E+00  0.00000000E+00  0.00000000E+00
  0.00000000E+00  0.00000000E+00  0.00000000E+00
  0.00000000E+00  0.00000000E+00  0.00000000E+00
  0.00000000E+00  0.00000000E+00  0.00000000E+00
  0.00000000E+00  0.00000000E+00  0.00000000E+00
  0.00000000E+00  0.00000000E+00  0.00000000E+00
  0.00000000E+00  0.00000000E+00  0.00000000E+00
  0.00000000E+00  0.00000000E+00  0.00000000E+00
  0.00000000E+00  0.00000000E+00  0.00000000E+00
  0.00000000E+00  0.00000000E+00  0.00000000E+00
  0.00000000E+00  0.00000000E+00  0.00000000E+00
  0.00000000E+00  0.00000000E+00  0.00000000E+00
  0.00000000E+00  0.00000000E+00  0.00000000E+00
  0.00000000E+00  0.00000000E+00  0.00000000E+00
  0.00000000E+00  0.00000000E+00  0.00000000E+00
  0.00000000E+00  0.00000000E+00  0.00000000E+00
  0.00000000E+00  0.00000000E+00  0.00000000E+00
  0.00000000E+00  0.00000000E+00  0.00000000E+00
  0.00000000E+00  0.00000000E+00  0.00000000E+00
  0.00000000E+00  0.00000000E+00  0.00000000E+00
  0.00000000E+00  0.00000000E+00  0.00000000E+00
  0.00000000E+00  0.00000000E+00  0.00000000E+00
  0.00000000E+00  0.00000000E+00  0.00000000E+00
  0.00000000E+00  0.00000000E+00  0.00000000E+00
  0.00000000E+00  0.00000000E+00  0.00000000E+00
  0.00000000E+00  0.00000000E+00  0.00000000E+00
  0.00000000E+00  0.00000000E+00  0.00000000E+00
  0.00000000E+00  0.00000000E+00  0.00000000E+00
  0.00000000E+00  0.00000000E+00  0.00000000E+00
  0.00000000E+00  0.00000000E+00  0.00000000E+00
  0.00000000E+00  0.00000000E+00  0.00000000E+00
  0.00000000E+00  0.00000000E+00  0.00000000E+00
  0.00000000E+00  0.00000000E+00  0.00000000E+00
  0.00000000E+00  0.00000000E+00  0.00000000E+00
  0.00000000E+00  0.00000000E+00  0.00000000E+00
  0.00000000E+00  0.00000000E+00  0.00000000E+00
  0.00000000E+00  0.00000000E+00  0.00000000E+00
