Generated by VASPKIT code               
   1.00000000000000     
    11.5981998443999998    0.0000000000000000    0.0000000000000000
    -5.7990999221999999   10.0443357033999998    0.0000000000000000
     0.0000000000000000    0.0000000000000000   21.0482006073000001
  Ce              O               Ir            
    18    45     7
Selective dynamics
Direct
  0.0030558881585851  0.9970097766771727  0.4590368120504408   T   T   T
  0.2222200000000001  0.1111099999999965  0.3099599999999967   F   F   F
  0.3254948270497743  0.9969375522606956  0.4615631047397780   T   T   T
  0.5555599999999998  0.1111099999999965  0.3099599999999967   F   F   F
  0.6695590239641565  0.0057502562582547  0.4639476673541330   T   T   T
  0.8888900000000035  0.1111099999999965  0.3099599999999967   F   F   F
  0.9942884921762525  0.3304314357366603  0.4638822390998959   T   T   T
  0.2222200000000001  0.4444400000000002  0.3099599999999967   F   F   F
  0.3328170746400635  0.3338827474661236  0.4584776794522630   T   T   T
  0.5555599999999998  0.4444400000000002  0.3099599999999967   F   F   F
  0.6713455970969345  0.3287735514088903  0.4565380138020599   T   T   T
  0.8888900000000035  0.4444400000000002  0.3099599999999967   F   F   F
  0.0031611883026804  0.6745337873032897  0.4615415572107927   T   T   T
  0.2222200000000001  0.7777799999999999  0.3099599999999967   F   F   F
  0.3340586964398873  0.6659428803108417  0.4597536904578817   T   T   T
  0.5555599999999998  0.7777799999999999  0.3099599999999967   F   F   F
  0.6661326339194938  0.6672072140438404  0.4587342343599037   T   T   T
  0.8888900000000035  0.7777799999999999  0.3099599999999967   F   F   F
  0.0056490377578495  0.9948529273910379  0.5820962433223447   T   T   T
  0.1111099999999965  0.2222200000000001  0.2724699999999984   F   F   F
  0.2265577350744837  0.1176491162199842  0.4215965794901959   T   T   T
  0.1091760797565870  0.2188517646970633  0.5029739025635794   T   T   T
  0.0000000000000000  0.0000000000000000  0.3474500000000020   F   F   F
  0.3355564863391516  0.0316105919617848  0.5793762717489139   T   T   T
  0.4444400000000002  0.2222200000000001  0.2724699999999984   F   F   F
  0.5503039648058077  0.1072671195424778  0.4219058204035991   T   T   T
  0.4538228153494003  0.2352320865041051  0.5005997966583593   T   T   T
  0.3333299999999966  0.0000000000000000  0.3474500000000020   F   F   F
  0.6428255499186231  0.9832199192599438  0.5780439281576195   T   T   T
  0.7777799999999999  0.2222200000000001  0.2724699999999984   F   F   F
  0.8915763102761113  0.1085652460128189  0.4233881055357991   T   T   T
  0.7776056673080610  0.2223511817069125  0.4903493251423834   T   T   T
  0.6666700000000034  0.0000000000000000  0.3474500000000020   F   F   F
  0.0163010082492738  0.3568847825946562  0.5779946694955549   T   T   T
  0.1111099999999965  0.5555599999999998  0.2724699999999984   F   F   F
  0.2176302507284761  0.4341363797862767  0.4227955019652521   T   T   T
  0.1080597178819945  0.5620481715304478  0.5022008047971842   T   T   T
  0.0000000000000000  0.3333299999999966  0.3474500000000020   F   F   F
  0.3165646211412069  0.3476802177167305  0.5935912035920053   T   T   T
  0.4444400000000002  0.5555599999999998  0.2724699999999984   F   F   F
  0.5545841510782666  0.4456422732492783  0.4204323529676088   T   T   T
  0.4468549066858679  0.5524183940982961  0.5029342493275404   T   T   T
  0.3333299999999966  0.3333299999999966  0.3474500000000020   F   F   F
  0.6591965608036677  0.3411790587362302  0.5912668755558523   T   T   T
  0.7777799999999999  0.5555599999999998  0.2724699999999984   F   F   F
  0.8927742051415143  0.4496512169892847  0.4218598362925097   T   T   T
  0.7650819988011371  0.5460792783059079  0.5006386099017148   T   T   T
  0.6666700000000034  0.3333299999999966  0.3474500000000020   F   F   F
  0.9699033620624095  0.6636728121084704  0.5790797657852098   T   T   T
  0.1111099999999965  0.8888900000000035  0.2724699999999984   F   F   F
  0.2204405964794577  0.7796235478779667  0.4211591194752506   T   T   T
  0.1103753303004741  0.8897287518536258  0.4883409750821532   T   T   T
  0.0000000000000000  0.6666700000000034  0.3474500000000020   F   F   F
  0.3051694247358510  0.6945321848788003  0.5970450134820635   T   T   T
  0.4444400000000002  0.8888900000000035  0.2724699999999984   F   F   F
  0.5658633801011724  0.7823316280977780  0.4229393809265416   T   T   T
  0.4377204057674836  0.8920895349971720  0.5023205963177563   T   T   T
  0.3333299999999966  0.6666700000000034  0.3474500000000020   F   F   F
  0.6542247382441470  0.6809836838289385  0.5914490190205545   T   T   T
  0.7777799999999999  0.8888900000000035  0.2724699999999984   F   F   F
  0.8822644437626520  0.7734743495364503  0.4216460289060773   T   T   T
  0.7814007716168403  0.8914455023051874  0.5029775760789639   T   T   T
  0.6666700000000034  0.6666700000000034  0.3474500000000020   F   F   F
  0.4848110509382252  0.5141472345896038  0.5878023121936423   T   T   T
  0.1595987479771640  0.1733994892120386  0.5837674984477500   T   T   T
  0.4928841515444875  0.1856648947206844  0.5827127780533232   T   T   T
  0.8154713666408394  0.5067102092280986  0.5825277516862523   T   T   T
  0.8274433969556617  0.8406393855752735  0.5833945281752747   T   T   T
  0.4731123720220571  0.8463151610743095  0.5861515567148303   T   T   T
  0.1535511372561427  0.5264250948776245  0.5860736425852073   T   T   T
 
  0.00000000E+00  0.00000000E+00  0.00000000E+00
  0.00000000E+00  0.00000000E+00  0.00000000E+00
  0.00000000E+00  0.00000000E+00  0.00000000E+00
  0.00000000E+00  0.00000000E+00  0.00000000E+00
  0.00000000E+00  0.00000000E+00  0.00000000E+00
  0.00000000E+00  0.00000000E+00  0.00000000E+00
  0.00000000E+00  0.00000000E+00  0.00000000E+00
  0.00000000E+00  0.00000000E+00  0.00000000E+00
  0.00000000E+00  0.00000000E+00  0.00000000E+00
  0.00000000E+00  0.00000000E+00  0.00000000E+00
  0.00000000E+00  0.00000000E+00  0.00000000E+00
  0.00000000E+00  0.00000000E+00  0.00000000E+00
  0.00000000E+00  0.00000000E+00  0.00000000E+00
  0.00000000E+00  0.00000000E+00  0.00000000E+00
  0.00000000E+00  0.00000000E+00  0.00000000E+00
  0.00000000E+00  0.00000000E+00  0.00000000E+00
  0.00000000E+00  0.00000000E+00  0.00000000E+00
  0.00000000E+00  0.00000000E+00  0.00000000E+00
  0.00000000E+00  0.00000000E+00  0.00000000E+00
  0.00000000E+00  0.00000000E+00  0.00000000E+00
  0.00000000E+00  0.00000000E+00  0.00000000E+00
  0.00000000E+00  0.00000000E+00  0.00000000E+00
  0.00000000E+00  0.00000000E+00  0.00000000E+00
  0.00000000E+00  0.00000000E+00  0.00000000E+00
  0.00000000E+00  0.00000000E+00  0.00000000E+00
  0.00000000E+00  0.00000000E+00  0.00000000E+00
  0.00000000E+00  0.00000000E+00  0.00000000E+00
  0.00000000E+00  0.00000000E+00  0.00000000E+00
  0.00000000E+00  0.00000000E+00  0.00000000E+00
  0.00000000E+00  0.00000000E+00  0.00000000E+00
  0.00000000E+00  0.00000000E+00  0.00000000E+00
  0.00000000E+00  0.00000000E+00  0.00000000E+00
  0.00000000E+00  0.00000000E+00  0.00000000E+00
  0.00000000E+00  0.00000000E+00  0.00000000E+00
  0.00000000E+00  0.00000000E+00  0.00000000E+00
  0.00000000E+00  0.00000000E+00  0.00000000E+00
  0.00000000E+00  0.00000000E+00  0.00000000E+00
  0.00000000E+00  0.00000000E+00  0.00000000E+00
  0.00000000E+00  0.00000000E+00  0.00000000E+00
  0.00000000E+00  0.00000000E+00  0.00000000E+00
  0.00000000E+00  0.00000000E+00  0.00000000E+00
  0.00000000E+00  0.00000000E+00  0.00000000E+00
  0.00000000E+00  0.00000000E+00  0.00000000E+00
  0.00000000E+00  0.00000000E+00  0.00000000E+00
  0.00000000E+00  0.00000000E+00  0.00000000E+00
  0.00000000E+00  0.00000000E+00  0.00000000E+00
  0.00000000E+00  0.00000000E+00  0.00000000E+00
  0.00000000E+00  0.00000000E+00  0.00000000E+00
  0.00000000E+00  0.00000000E+00  0.00000000E+00
  0.00000000E+00  0.00000000E+00  0.00000000E+00
  0.00000000E+00  0.00000000E+00  0.00000000E+00
  0.00000000E+00  0.00000000E+00  0.00000000E+00
  0.00000000E+00  0.00000000E+00  0.00000000E+00
  0.00000000E+00  0.00000000E+00  0.00000000E+00
  0.00000000E+00  0.00000000E+00  0.00000000E+00
  0.00000000E+00  0.00000000E+00  0.00000000E+00
  0.00000000E+00  0.00000000E+00  0.00000000E+00
  0.00000000E+00  0.00000000E+00  0.00000000E+00
  0.00000000E+00  0.00000000E+00  0.00000000E+00
  0.00000000E+00  0.00000000E+00  0.00000000E+00
  0.00000000E+00  0.00000000E+00  0.00000000E+00
  0.00000000E+00  0.00000000E+00  0.00000000E+00
  0.00000000E+00  0.00000000E+00  0.00000000E+00
  0.00000000E+00  0.00000000E+00  0.00000000E+00
  0.00000000E+00  0.00000000E+00  0.00000000E+00
  0.00000000E+00  0.00000000E+00  0.00000000E+00
  0.00000000E+00  0.00000000E+00  0.00000000E+00
  0.00000000E+00  0.00000000E+00  0.00000000E+00
  0.00000000E+00  0.00000000E+00  0.00000000E+00
  0.00000000E+00  0.00000000E+00  0.00000000E+00
