Generated by VASPKIT code
 1.000000
   11.5981998443999998    0.0000000000000000    0.0000000000000000
   -5.7990999221999999   10.0443357033999998    0.0000000000000000
    0.0000000000000000    0.0000000000000000   21.0482006073000001
   Ce   O    Ir
    18    45     7
Selective Dynamics
Direct
    0.0000000000000000    0.0000000000000000    0.4599300000000000    T  T  T    Ce001
    0.2222200000000000    0.1111100000000000    0.3099600000000000    F  F  F    Ce002
    0.3333300000000000    0.0000000000000000    0.4599300000000000    T  T  T    Ce003
    0.5555600000000001    0.1111100000000000    0.3099600000000000    F  F  F    Ce004
    0.6666700000000000    0.0000000000000000    0.4599300000000000    T  T  T    Ce005
    0.8888900000000000    0.1111100000000000    0.3099600000000000    F  F  F    Ce006
    0.0000000000000000    0.3333300000000000    0.4599300000000000    T  T  T    Ce007
    0.2222200000000000    0.4444400000000000    0.3099600000000000    F  F  F    Ce008
    0.3333300000000000    0.3333300000000000    0.4599300000000000    T  T  T    Ce009
    0.5555600000000001    0.4444400000000000    0.3099600000000000    F  F  F    Ce010
    0.6666700000000000    0.3333300000000000    0.4599300000000000    T  T  T    Ce011
    0.8888900000000000    0.4444400000000000    0.3099600000000000    F  F  F    Ce012
    0.0000000000000000    0.6666700000000000    0.4599300000000000    T  T  T    Ce013
    0.2222200000000000    0.7777800000000000    0.3099600000000000    F  F  F    Ce014
    0.3333300000000000    0.6666700000000000    0.4599300000000000    T  T  T    Ce015
    0.5555600000000001    0.7777800000000000    0.3099600000000000    F  F  F    Ce016
    0.6666700000000000    0.6666700000000000    0.4599300000000000    T  T  T    Ce017
    0.8888900000000000    0.7777800000000000    0.3099600000000000    F  F  F    Ce018
    0.0000000000000000    0.0000000000000000    0.5724100000000000    T  T  T     O001
    0.1111100000000000    0.2222200000000000    0.2724700000000000    F  F  F     O002
    0.2222200000000000    0.1111100000000000    0.4224400000000000    T  T  T     O003
    0.1111100000000000    0.2222200000000000    0.4974200000000000    T  T  T     O004
    0.0000000000000000    0.0000000000000000    0.3474500000000000    F  F  F     O005
    0.3333300000000000    0.0000000000000000    0.5724100000000000    T  T  T     O006
    0.4444400000000000    0.2222200000000000    0.2724700000000000    F  F  F     O007
    0.5555600000000001    0.1111100000000000    0.4224400000000000    T  T  T     O008
    0.4444400000000000    0.2222200000000000    0.4974200000000000    T  T  T     O009
    0.3333300000000000    0.0000000000000000    0.3474500000000000    F  F  F     O010
    0.6666700000000000    0.0000000000000000    0.5724100000000000    T  T  T     O011
    0.7777800000000000    0.2222200000000000    0.2724700000000000    F  F  F     O012
    0.8888900000000000    0.1111100000000000    0.4224400000000000    T  T  T     O013
    0.7777800000000000    0.2222200000000000    0.4974200000000000    T  T  T     O014
    0.6666700000000000    0.0000000000000000    0.3474500000000000    F  F  F     O015
    0.0000000000000000    0.3333300000000000    0.5724100000000000    T  T  T     O016
    0.1111100000000000    0.5555600000000001    0.2724700000000000    F  F  F     O017
    0.2222200000000000    0.4444400000000000    0.4224400000000000    T  T  T     O018
    0.1111100000000000    0.5555600000000001    0.4974200000000000    T  T  T     O019
    0.0000000000000000    0.3333300000000000    0.3474500000000000    F  F  F     O020
    0.3333300000000000    0.3333300000000000    0.5724100000000000    T  T  T     O021
    0.4444400000000000    0.5555600000000001    0.2724700000000000    F  F  F     O022
    0.5555600000000001    0.4444400000000000    0.4224400000000000    T  T  T     O023
    0.4444400000000000    0.5555600000000001    0.4974200000000000    T  T  T     O024
    0.3333300000000000    0.3333300000000000    0.3474500000000000    F  F  F     O025
    0.6666700000000000    0.3333300000000000    0.5724100000000000    T  T  T     O026
    0.7777800000000000    0.5555600000000001    0.2724700000000000    F  F  F     O027
    0.8888900000000000    0.4444400000000000    0.4224400000000000    T  T  T     O028
    0.7777800000000000    0.5555600000000001    0.4974200000000000    T  T  T     O029
    0.6666700000000000    0.3333300000000000    0.3474500000000000    F  F  F     O030
    0.0000000000000000    0.6666700000000000    0.5724100000000000    T  T  T     O031
    0.1111100000000000    0.8888900000000000    0.2724700000000000    F  F  F     O032
    0.2222200000000000    0.7777800000000000    0.4224400000000000    T  T  T     O033
    0.1111100000000000    0.8888900000000000    0.4974200000000000    T  T  T     O034
    0.0000000000000000    0.6666700000000000    0.3474500000000000    F  F  F     O035
    0.3333300000000000    0.6666700000000000    0.5724100000000000    T  T  T     O036
    0.4444400000000000    0.8888900000000000    0.2724700000000000    F  F  F     O037
    0.5555600000000001    0.7777800000000000    0.4224400000000000    T  T  T     O038
    0.4444400000000000    0.8888900000000000    0.4974200000000000    T  T  T     O039
    0.3333300000000000    0.6666700000000000    0.3474500000000000    F  F  F     O040
    0.6666700000000000    0.6666700000000000    0.5724100000000000    T  T  T     O041
    0.7777800000000000    0.8888900000000000    0.2724700000000000    F  F  F     O042
    0.8888900000000000    0.7777800000000000    0.4224400000000000    T  T  T     O043
    0.7777800000000000    0.8888900000000000    0.4974200000000000    T  T  T     O044
    0.6666700000000000    0.6666700000000000    0.3474500000000000    F  F  F     O045
    0.4982300000000000    0.5082800000000000    0.5721100000000000    T  T  T    Ir001
    0.1735100000000000    0.1828800000000000    0.5721100000000000    T  T  T    Ir002
    0.5090700000000000    0.1692400000000000    0.5721100000000000    T  T  T    Ir003
    0.8260700000000000    0.5022700000000000    0.5721100000000000    T  T  T    Ir004
    0.8354700000000000    0.8330600000000000    0.5721100000000000    T  T  T    Ir005
    0.5046800000000000    0.8364900000000000    0.5721100000000000    T  T  T    Ir006
    0.1548100000000000    0.4880700000000000    0.5721100000000000    T  T  T    Ir007
