Generated by VASPKIT code               
   1.00000000000000     
    15.4643001556000002    0.0000000000000000    0.0000000000000000
    -7.7321500778000001   13.3924767864999996    0.0000000000000000
     0.0000000000000000    0.0000000000000000   21.0482006073000001
  Ce              O               Ir            
    32    98     4
Selective dynamics
Direct
  0.0009123358281403  0.9997520297896930  0.4606864682193901   T   T   T
  0.1666700000000034  0.0833299999999966  0.3099599999999967   F   F   F
  0.2451664969427285  0.9951655864717577  0.4595268654820072   T   T   T
  0.4166700000000034  0.0833299999999966  0.3099599999999967   F   F   F
  0.4970523577411406  0.0016846939865263  0.4622113552430893   T   T   T
  0.6666700000000034  0.0833299999999966  0.3099599999999967   F   F   F
  0.7565869820439535  0.0031988905199507  0.4602059246603847   T   T   T
  0.9166700000000034  0.0833299999999966  0.3099599999999967   F   F   F
  0.9992265256893742  0.2497842678027921  0.4605206444957649   T   T   T
  0.1666700000000034  0.3333299999999966  0.3099599999999967   F   F   F
  0.2473266683480876  0.2513412136498186  0.4627895460544521   T   T   T
  0.4166700000000034  0.3333299999999966  0.3099599999999967   F   F   F
  0.5029485850966710  0.2483988236033642  0.4641834859123187   T   T   T
  0.6666700000000034  0.3333299999999966  0.3099599999999967   F   F   F
  0.7510065816497150  0.2496827082374715  0.4602365037477363   T   T   T
  0.9166700000000034  0.3333299999999966  0.3099599999999967   F   F   F
  0.0010336158754555  0.4997890018999971  0.4606799213931713   T   T   T
  0.1666700000000034  0.5833299999999966  0.3099599999999967   F   F   F
  0.2449303100823129  0.4946014715111745  0.4594300993296502   T   T   T
  0.4166700000000034  0.5833299999999966  0.3099599999999967   F   F   F
  0.4968666489521850  0.5018600043996885  0.4620223275997857   T   T   T
  0.6666700000000034  0.5833299999999966  0.3099599999999967   F   F   F
  0.7570077197206524  0.5033263467131942  0.4601157589385553   T   T   T
  0.9166700000000034  0.5833299999999966  0.3099599999999967   F   F   F
  0.9991904062254475  0.7499436040540652  0.4604663466614121   T   T   T
  0.1666700000000034  0.8333299999999966  0.3099599999999967   F   F   F
  0.2470063987062576  0.7515800626604142  0.4625118445102390   T   T   T
  0.4166700000000034  0.8333299999999966  0.3099599999999967   F   F   F
  0.5031149180005354  0.7487550154548682  0.4642229419717857   T   T   T
  0.6666700000000034  0.8333299999999966  0.3099599999999967   F   F   F
  0.7509021639750716  0.7497313941641447  0.4602729289639745   T   T   T
  0.9166700000000034  0.8333299999999966  0.3099599999999967   F   F   F
  0.0833299999999966  0.1666700000000034  0.2724699999999984   F   F   F
  0.1668855871997617  0.0837602620392931  0.4224309178761271   T   T   T
  0.0831685248328053  0.1668094289137605  0.4979659711844256   T   T   T
  0.0000000000000000  0.0000000000000000  0.3474500000000020   F   F   F
  0.1666700000000034  0.0833299999999966  0.1974799999999988   F   F   F
  0.2092289726049992  0.0689620255090767  0.6058339655422865   T   T   T
  0.3333299999999966  0.1666700000000034  0.2724699999999984   F   F   F
  0.4170082340247910  0.0868186480763202  0.4233023364204023   T   T   T
  0.3249930898648273  0.1577829117956990  0.5010688885456405   T   T   T
  0.2500000000000000  0.0000000000000000  0.3474500000000020   F   F   F
  0.4166700000000034  0.0833299999999966  0.1974799999999988   F   F   F
  0.5833299999999966  0.1666700000000034  0.2724699999999984   F   F   F
  0.6672495858180143  0.0822527048787186  0.4223105855831801   T   T   T
  0.5859130359488982  0.1657838419962494  0.4956515074137371   T   T   T
  0.5000000000000000  0.0000000000000000  0.3474500000000020   F   F   F
  0.6666700000000034  0.0833299999999966  0.1974799999999988   F   F   F
  0.6787546078411777  0.0428689739534187  0.6076850460630187   T   T   T
  0.8333299999999966  0.1666700000000034  0.2724699999999984   F   F   F
  0.9183049726356087  0.0840700805223969  0.4217608411206212   T   T   T
  0.8357776034628607  0.1679118246519924  0.4968695530609688   T   T   T
  0.7500000000000000  0.0000000000000000  0.3474500000000020   F   F   F
  0.9166700000000034  0.0833299999999966  0.1974799999999988   F   F   F
  0.0833299999999966  0.4166700000000034  0.2724699999999984   F   F   F
  0.1628471955687592  0.3305607102054586  0.4213426375064796   T   T   T
  0.0811036723113691  0.4143352323872190  0.4969377825455009   T   T   T
  0.0000000000000000  0.2500000000000000  0.3474500000000020   F   F   F
  0.1666700000000034  0.3333299999999966  0.1974799999999988   F   F   F
  0.3333299999999966  0.4166700000000034  0.2724699999999984   F   F   F
  0.4202739859321832  0.3324565709014605  0.4270821092463761   T   T   T
  0.3274296743067784  0.4170424146562494  0.4909412176364576   T   T   T
  0.2500000000000000  0.2500000000000000  0.3474500000000020   F   F   F
  0.4166700000000034  0.3333299999999966  0.1974799999999988   F   F   F
  0.4761028367189274  0.2746154910211389  0.5737247416099072   T   T   T
  0.5833299999999966  0.4166700000000034  0.2724699999999984   F   F   F
  0.6664883514099756  0.3352481213930045  0.4239707500071030   T   T   T
  0.5948288431687174  0.4274088748440633  0.5038619162572912   T   T   T
  0.5000000000000000  0.2500000000000000  0.3474500000000020   F   F   F
  0.6666700000000034  0.3333299999999966  0.1974799999999988   F   F   F
  0.8333299999999966  0.4166700000000034  0.2724699999999984   F   F   F
  0.9161604640703884  0.3328945730628469  0.4216574350940508   T   T   T
  0.8376034691891878  0.4185598694317523  0.4964474806686070   T   T   T
  0.7500000000000000  0.2500000000000000  0.3474500000000020   F   F   F
  0.9166700000000034  0.3333299999999966  0.1974799999999988   F   F   F
  0.0833299999999966  0.6666700000000034  0.2724699999999984   F   F   F
  0.1671704032676667  0.5838431206763359  0.4224468007351436   T   T   T
  0.0828831960788742  0.6667471576288234  0.4979315842843768   T   T   T
  0.0000000000000000  0.5000000000000000  0.3474500000000020   F   F   F
  0.1666700000000034  0.5833299999999966  0.1974799999999988   F   F   F
  0.2057456934664241  0.5721895495401774  0.6099966719775709   T   T   T
  0.3333299999999966  0.6666700000000034  0.2724699999999984   F   F   F
  0.4163508102881379  0.5868959546841326  0.4235439346202414   T   T   T
  0.3233309173528853  0.6564270021608710  0.5030447577028595   T   T   T
  0.2500000000000000  0.5000000000000000  0.3474500000000020   F   F   F
  0.4166700000000034  0.5833299999999966  0.1974799999999988   F   F   F
  0.5833299999999966  0.6666700000000034  0.2724699999999984   F   F   F
  0.6669926060505409  0.5817319783380902  0.4224323108058957   T   T   T
  0.5854098063859430  0.6655024901969486  0.4956108023888085   T   T   T
  0.5000000000000000  0.5000000000000000  0.3474500000000020   F   F   F
  0.6666700000000034  0.5833299999999966  0.1974799999999988   F   F   F
  0.6751965090921482  0.5461239455427241  0.6116690814254080   T   T   T
  0.8333299999999966  0.6666700000000034  0.2724699999999984   F   F   F
  0.9183461848571143  0.5841100300940977  0.4217653547792251   T   T   T
  0.8354543616921338  0.6677076068547386  0.4970314688259151   T   T   T
  0.7500000000000000  0.5000000000000000  0.3474500000000020   F   F   F
  0.9166700000000034  0.5833299999999966  0.1974799999999988   F   F   F
  0.0833299999999966  0.9166700000000034  0.2724699999999984   F   F   F
  0.1628799426823987  0.8307017002802758  0.4213398696831064   T   T   T
  0.0808357886338368  0.9141084820242112  0.4966609362334150   T   T   T
  0.0000000000000000  0.7500000000000000  0.3474500000000020   F   F   F
  0.1666700000000034  0.8333299999999966  0.1974799999999988   F   F   F
  0.3333299999999966  0.9166700000000034  0.2724699999999984   F   F   F
  0.4191848448815101  0.8312642168286254  0.4271076720143991   T   T   T
  0.3279156944307612  0.9174556753188979  0.4906871532092482   T   T   T
  0.2500000000000000  0.7500000000000000  0.3474500000000020   F   F   F
  0.4166700000000034  0.8333299999999966  0.1974799999999988   F   F   F
  0.4757299068521992  0.7747471070976614  0.5736357572078132   T   T   T
  0.5833299999999966  0.9166700000000034  0.2724699999999984   F   F   F
  0.6667294256740172  0.8348215756404344  0.4238520976441106   T   T   T
  0.5938748396509870  0.9260542071207639  0.5019739357138524   T   T   T
  0.5000000000000000  0.7500000000000000  0.3474500000000020   F   F   F
  0.6666700000000034  0.8333299999999966  0.1974799999999988   F   F   F
  0.8333299999999966  0.9166700000000034  0.2724699999999984   F   F   F
  0.9158984281240553  0.8326552160482003  0.4216232318562388   T   T   T
  0.8375734929100024  0.9184543181372826  0.4964410121824600   T   T   T
  0.7500000000000000  0.7500000000000000  0.3474500000000020   F   F   F
  0.9166700000000034  0.8333299999999966  0.1974799999999988   F   F   F
  0.4857102102911204  0.4517894568966834  0.5779776423785318   T   T   T
  0.2975975069693688  0.7627657283870986  0.5791712924303216   T   T   T
  0.4873800523284754  0.9507367250271391  0.5792349879948758   T   T   T
  0.5334504737271545  0.3837931438582597  0.6811454646721218   T   T   T
  0.3661421579753312  0.7129816674929308  0.6813675169862093   T   T   T
  0.5405646553459349  0.8852172625777266  0.6817552317839454   T   T   T
  0.6577280608945921  0.3704115852186606  0.5952903047483004   T   T   T
  0.3827016478484383  0.5932520758232929  0.5932080087779465   T   T   T
  0.6571655220958275  0.8656279462927020  0.5924355401340724   T   T   T
  0.2995001021707303  0.2611821858656201  0.5808096561542964   T   T   T
  0.3653616979500196  0.2047470642707299  0.6819556378466464   T   T   T
  0.3872982234464575  0.0932060873654263  0.5898202801850755   T   T   T
  0.5795911218022797  0.9185438355292822  0.6035451116718200   T   T   T
  0.3299806485390445  0.6708603429033211  0.6039177314281970   T   T   T
  0.5783151461127872  0.4214648345901237  0.6043470138173465   T   T   T
  0.3333178728831228  0.1693307925495142  0.6031053480227568   T   T   T
 
  0.00000000E+00  0.00000000E+00  0.00000000E+00
  0.00000000E+00  0.00000000E+00  0.00000000E+00
  0.00000000E+00  0.00000000E+00  0.00000000E+00
  0.00000000E+00  0.00000000E+00  0.00000000E+00
  0.00000000E+00  0.00000000E+00  0.00000000E+00
  0.00000000E+00  0.00000000E+00  0.00000000E+00
  0.00000000E+00  0.00000000E+00  0.00000000E+00
  0.00000000E+00  0.00000000E+00  0.00000000E+00
  0.00000000E+00  0.00000000E+00  0.00000000E+00
  0.00000000E+00  0.00000000E+00  0.00000000E+00
  0.00000000E+00  0.00000000E+00  0.00000000E+00
  0.00000000E+00  0.00000000E+00  0.00000000E+00
  0.00000000E+00  0.00000000E+00  0.00000000E+00
  0.00000000E+00  0.00000000E+00  0.00000000E+00
  0.00000000E+00  0.00000000E+00  0.00000000E+00
  0.00000000E+00  0.00000000E+00  0.00000000E+00
  0.00000000E+00  0.00000000E+00  0.00000000E+00
  0.00000000E+00  0.00000000E+00  0.00000000E+00
  0.00000000E+00  0.00000000E+00  0.00000000E+00
  0.00000000E+00  0.00000000E+00  0.00000000E+00
  0.00000000E+00  0.00000000E+00  0.00000000E+00
  0.00000000E+00  0.00000000E+00  0.00000000E+00
  0.00000000E+00  0.00000000E+00  0.00000000E+00
  0.00000000E+00  0.00000000E+00  0.00000000E+00
  0.00000000E+00  0.00000000E+00  0.00000000E+00
  0.00000000E+00  0.00000000E+00  0.00000000E+00
  0.00000000E+00  0.00000000E+00  0.00000000E+00
  0.00000000E+00  0.00000000E+00  0.00000000E+00
  0.00000000E+00  0.00000000E+00  0.00000000E+00
  0.00000000E+00  0.00000000E+00  0.00000000E+00
  0.00000000E+00  0.00000000E+00  0.00000000E+00
  0.00000000E+00  0.00000000E+00  0.00000000E+00
  0.00000000E+00  0.00000000E+00  0.00000000E+00
  0.00000000E+00  0.00000000E+00  0.00000000E+00
  0.00000000E+00  0.00000000E+00  0.00000000E+00
  0.00000000E+00  0.00000000E+00  0.00000000E+00
  0.00000000E+00  0.00000000E+00  0.00000000E+00
  0.00000000E+00  0.00000000E+00  0.00000000E+00
  0.00000000E+00  0.00000000E+00  0.00000000E+00
  0.00000000E+00  0.00000000E+00  0.00000000E+00
  0.00000000E+00  0.00000000E+00  0.00000000E+00
  0.00000000E+00  0.00000000E+00  0.00000000E+00
  0.00000000E+00  0.00000000E+00  0.00000000E+00
  0.00000000E+00  0.00000000E+00  0.00000000E+00
  0.00000000E+00  0.00000000E+00  0.00000000E+00
  0.00000000E+00  0.00000000E+00  0.00000000E+00
  0.00000000E+00  0.00000000E+00  0.00000000E+00
  0.00000000E+00  0.00000000E+00  0.00000000E+00
  0.00000000E+00  0.00000000E+00  0.00000000E+00
  0.00000000E+00  0.00000000E+00  0.00000000E+00
  0.00000000E+00  0.00000000E+00  0.00000000E+00
  0.00000000E+00  0.00000000E+00  0.00000000E+00
  0.00000000E+00  0.00000000E+00  0.00000000E+00
  0.00000000E+00  0.00000000E+00  0.00000000E+00
  0.00000000E+00  0.00000000E+00  0.00000000E+00
  0.00000000E+00  0.00000000E+00  0.00000000E+00
  0.00000000E+00  0.00000000E+00  0.00000000E+00
  0.00000000E+00  0.00000000E+00  0.00000000E+00
  0.00000000E+00  0.00000000E+00  0.00000000E+00
  0.00000000E+00  0.00000000E+00  0.00000000E+00
  0.00000000E+00  0.00000000E+00  0.00000000E+00
  0.00000000E+00  0.00000000E+00  0.00000000E+00
  0.00000000E+00  0.00000000E+00  0.00000000E+00
  0.00000000E+00  0.00000000E+00  0.00000000E+00
  0.00000000E+00  0.00000000E+00  0.00000000E+00
  0.00000000E+00  0.00000000E+00  0.00000000E+00
  0.00000000E+00  0.00000000E+00  0.00000000E+00
  0.00000000E+00  0.00000000E+00  0.00000000E+00
  0.00000000E+00  0.00000000E+00  0.00000000E+00
  0.00000000E+00  0.00000000E+00  0.00000000E+00
  0.00000000E+00  0.00000000E+00  0.00000000E+00
  0.00000000E+00  0.00000000E+00  0.00000000E+00
  0.00000000E+00  0.00000000E+00  0.00000000E+00
  0.00000000E+00  0.00000000E+00  0.00000000E+00
  0.00000000E+00  0.00000000E+00  0.00000000E+00
  0.00000000E+00  0.00000000E+00  0.00000000E+00
  0.00000000E+00  0.00000000E+00  0.00000000E+00
  0.00000000E+00  0.00000000E+00  0.00000000E+00
  0.00000000E+00  0.00000000E+00  0.00000000E+00
  0.00000000E+00  0.00000000E+00  0.00000000E+00
  0.00000000E+00  0.00000000E+00  0.00000000E+00
  0.00000000E+00  0.00000000E+00  0.00000000E+00
  0.00000000E+00  0.00000000E+00  0.00000000E+00
  0.00000000E+00  0.00000000E+00  0.00000000E+00
  0.00000000E+00  0.00000000E+00  0.00000000E+00
  0.00000000E+00  0.00000000E+00  0.00000000E+00
  0.00000000E+00  0.00000000E+00  0.00000000E+00
  0.00000000E+00  0.00000000E+00  0.00000000E+00
  0.00000000E+00  0.00000000E+00  0.00000000E+00
  0.00000000E+00  0.00000000E+00  0.00000000E+00
  0.00000000E+00  0.00000000E+00  0.00000000E+00
  0.00000000E+00  0.00000000E+00  0.00000000E+00
  0.00000000E+00  0.00000000E+00  0.00000000E+00
  0.00000000E+00  0.00000000E+00  0.00000000E+00
  0.00000000E+00  0.00000000E+00  0.00000000E+00
  0.00000000E+00  0.00000000E+00  0.00000000E+00
  0.00000000E+00  0.00000000E+00  0.00000000E+00
  0.00000000E+00  0.00000000E+00  0.00000000E+00
  0.00000000E+00  0.00000000E+00  0.00000000E+00
  0.00000000E+00  0.00000000E+00  0.00000000E+00
  0.00000000E+00  0.00000000E+00  0.00000000E+00
  0.00000000E+00  0.00000000E+00  0.00000000E+00
  0.00000000E+00  0.00000000E+00  0.00000000E+00
  0.00000000E+00  0.00000000E+00  0.00000000E+00
  0.00000000E+00  0.00000000E+00  0.00000000E+00
  0.00000000E+00  0.00000000E+00  0.00000000E+00
  0.00000000E+00  0.00000000E+00  0.00000000E+00
  0.00000000E+00  0.00000000E+00  0.00000000E+00
  0.00000000E+00  0.00000000E+00  0.00000000E+00
  0.00000000E+00  0.00000000E+00  0.00000000E+00
  0.00000000E+00  0.00000000E+00  0.00000000E+00
  0.00000000E+00  0.00000000E+00  0.00000000E+00
  0.00000000E+00  0.00000000E+00  0.00000000E+00
  0.00000000E+00  0.00000000E+00  0.00000000E+00
  0.00000000E+00  0.00000000E+00  0.00000000E+00
  0.00000000E+00  0.00000000E+00  0.00000000E+00
  0.00000000E+00  0.00000000E+00  0.00000000E+00
  0.00000000E+00  0.00000000E+00  0.00000000E+00
  0.00000000E+00  0.00000000E+00  0.00000000E+00
  0.00000000E+00  0.00000000E+00  0.00000000E+00
  0.00000000E+00  0.00000000E+00  0.00000000E+00
  0.00000000E+00  0.00000000E+00  0.00000000E+00
  0.00000000E+00  0.00000000E+00  0.00000000E+00
  0.00000000E+00  0.00000000E+00  0.00000000E+00
  0.00000000E+00  0.00000000E+00  0.00000000E+00
  0.00000000E+00  0.00000000E+00  0.00000000E+00
  0.00000000E+00  0.00000000E+00  0.00000000E+00
  0.00000000E+00  0.00000000E+00  0.00000000E+00
  0.00000000E+00  0.00000000E+00  0.00000000E+00
  0.00000000E+00  0.00000000E+00  0.00000000E+00
  0.00000000E+00  0.00000000E+00  0.00000000E+00
  0.00000000E+00  0.00000000E+00  0.00000000E+00
  0.00000000E+00  0.00000000E+00  0.00000000E+00
  0.00000000E+00  0.00000000E+00  0.00000000E+00
