Generated by VASPKIT code               
   1.00000000000000     
    15.4643001556000002    0.0000000000000000    0.0000000000000000
    -7.7321500778000001   13.3924767864999996    0.0000000000000000
     0.0000000000000000    0.0000000000000000   21.0482006073000001
  Ce              O               Ir            
    32    98     4
Selective dynamics
Direct
  0.0013015150911376  0.9993576916467453  0.4606322853448593   T   T   T
  0.1666700000000034  0.0833299999999966  0.3099599999999967   F   F   F
  0.2453101231640669  0.9941417288892648  0.4596982016790823   T   T   T
  0.4166700000000034  0.0833299999999966  0.3099599999999967   F   F   F
  0.4974839737306692  0.0008143735273612  0.4629014095433317   T   T   T
  0.6666700000000034  0.0833299999999966  0.3099599999999967   F   F   F
  0.7573044854278004  0.0029481077653915  0.4599800527590963   T   T   T
  0.9166700000000034  0.0833299999999966  0.3099599999999967   F   F   F
  0.9995845862244721  0.2493505324756344  0.4606153626182038   T   T   T
  0.1666700000000034  0.3333299999999966  0.3099599999999967   F   F   F
  0.2476862838843397  0.2501302657350793  0.4634888559925028   T   T   T
  0.4166700000000034  0.3333299999999966  0.3099599999999967   F   F   F
  0.5033557183437627  0.2471077190656919  0.4643940057013594   T   T   T
  0.6666700000000034  0.3333299999999966  0.3099599999999967   F   F   F
  0.7514050360600701  0.2492935478324602  0.4601458230714836   T   T   T
  0.9166700000000034  0.3333299999999966  0.3099599999999967   F   F   F
  0.0019186207917469  0.4995460253735519  0.4606792720565483   T   T   T
  0.1666700000000034  0.5833299999999966  0.3099599999999967   F   F   F
  0.2455298529654421  0.4931806779882571  0.4593729103155329   T   T   T
  0.4166700000000034  0.5833299999999966  0.3099599999999967   F   F   F
  0.4977393694502907  0.5010899723555522  0.4629848290002696   T   T   T
  0.6666700000000034  0.5833299999999966  0.3099599999999967   F   F   F
  0.7581526544310438  0.5028428358145078  0.4598259894429461   T   T   T
  0.9166700000000034  0.5833299999999966  0.3099599999999967   F   F   F
  0.9996488621802546  0.7496189319332250  0.4605572838888674   T   T   T
  0.1666700000000034  0.8333299999999966  0.3099599999999967   F   F   F
  0.2473017293191113  0.7508485798506468  0.4631160967515519   T   T   T
  0.4166700000000034  0.8333299999999966  0.3099599999999967   F   F   F
  0.5042884435203913  0.7480327411500786  0.4643398535158093   T   T   T
  0.6666700000000034  0.8333299999999966  0.3099599999999967   F   F   F
  0.7516406345317357  0.7492567927785048  0.4601425703331385   T   T   T
  0.9166700000000034  0.8333299999999966  0.3099599999999967   F   F   F
  0.0833299999999966  0.1666700000000034  0.2724699999999984   F   F   F
  0.1667258394837230  0.0832925336100642  0.4226034687027638   T   T   T
  0.0836633951069158  0.1667852238032537  0.4980987162646605   T   T   T
  0.0000000000000000  0.0000000000000000  0.3474500000000020   F   F   F
  0.1666700000000034  0.0833299999999966  0.1974799999999988   F   F   F
  0.2155383437823683  0.0587253642240942  0.6053555155798390   T   T   T
  0.3333299999999966  0.1666700000000034  0.2724699999999984   F   F   F
  0.4170567309757451  0.0857623072590120  0.4236939221594750   T   T   T
  0.3242820155301084  0.1556826792797866  0.5004843357898237   T   T   T
  0.2500000000000000  0.0000000000000000  0.3474500000000020   F   F   F
  0.4166700000000034  0.0833299999999966  0.1974799999999988   F   F   F
  0.5833299999999966  0.1666700000000034  0.2724699999999984   F   F   F
  0.6675906960540302  0.0819827949732577  0.4221814250397247   T   T   T
  0.5866009812702310  0.1648579675436778  0.4954280679546123   T   T   T
  0.5000000000000000  0.0000000000000000  0.3474500000000020   F   F   F
  0.6666700000000034  0.0833299999999966  0.1974799999999988   F   F   F
  0.6861987600126049  0.0370464321866177  0.6089385205400724   T   T   T
  0.8333299999999966  0.1666700000000034  0.2724699999999984   F   F   F
  0.9187773773310385  0.0837845651980612  0.4218268464732078   T   T   T
  0.8364084246260982  0.1679678153549171  0.4968863890129807   T   T   T
  0.7500000000000000  0.0000000000000000  0.3474500000000020   F   F   F
  0.9166700000000034  0.0833299999999966  0.1974799999999988   F   F   F
  0.0833299999999966  0.4166700000000034  0.2724699999999984   F   F   F
  0.1637451827673195  0.3302697409103376  0.4214170616048448   T   T   T
  0.0818123748751427  0.4139018853640685  0.4969249344718014   T   T   T
  0.0000000000000000  0.2500000000000000  0.3474500000000020   F   F   F
  0.1666700000000034  0.3333299999999966  0.1974799999999988   F   F   F
  0.3333299999999966  0.4166700000000034  0.2724699999999984   F   F   F
  0.4214846727173085  0.3325550630790397  0.4276531671983043   T   T   T
  0.3280162595585084  0.4149898355083660  0.4923933847989518   T   T   T
  0.2500000000000000  0.2500000000000000  0.3474500000000020   F   F   F
  0.4166700000000034  0.3333299999999966  0.1974799999999988   F   F   F
  0.4749212381824806  0.2753238154977737  0.5709324165901660   T   T   T
  0.5833299999999966  0.4166700000000034  0.2724699999999984   F   F   F
  0.6666493129047478  0.3347411815447878  0.4242150678248090   T   T   T
  0.5984266136534436  0.4292494909519343  0.5055395985851484   T   T   T
  0.5000000000000000  0.2500000000000000  0.3474500000000020   F   F   F
  0.6666700000000034  0.3333299999999966  0.1974799999999988   F   F   F
  0.8333299999999966  0.4166700000000034  0.2724699999999984   F   F   F
  0.9166745389139436  0.3326991958146793  0.4216258019173576   T   T   T
  0.8386403106687711  0.4183624616973751  0.4960604517148903   T   T   T
  0.7500000000000000  0.2500000000000000  0.3474500000000020   F   F   F
  0.9166700000000034  0.3333299999999966  0.1974799999999988   F   F   F
  0.0833299999999966  0.6666700000000034  0.2724699999999984   F   F   F
  0.1676887961620433  0.5834582936238384  0.4225932588486915   T   T   T
  0.0837501859905590  0.6666433901596268  0.4979874513457055   T   T   T
  0.0000000000000000  0.5000000000000000  0.3474500000000020   F   F   F
  0.1666700000000034  0.5833299999999966  0.1974799999999988   F   F   F
  0.2105729707271307  0.5630469051616482  0.6135727726537308   T   T   T
  0.3333299999999966  0.6666700000000034  0.2724699999999984   F   F   F
  0.4167946278947932  0.5858269180594101  0.4241193071891139   T   T   T
  0.3214204591511825  0.6535473246126910  0.5036125381638510   T   T   T
  0.2500000000000000  0.5000000000000000  0.3474500000000020   F   F   F
  0.4166700000000034  0.5833299999999966  0.1974799999999988   F   F   F
  0.5833299999999966  0.6666700000000034  0.2724699999999984   F   F   F
  0.6671974227409814  0.5808289000740620  0.4224251706006347   T   T   T
  0.5865973286365138  0.6647153190322740  0.4952556852266230   T   T   T
  0.5000000000000000  0.5000000000000000  0.3474500000000020   F   F   F
  0.6666700000000034  0.5833299999999966  0.1974799999999988   F   F   F
  0.6869062735858203  0.5390698056178069  0.6177735918445176   T   T   T
  0.8333299999999966  0.6666700000000034  0.2724699999999984   F   F   F
  0.9194135616551522  0.5840702978229251  0.4217572693997423   T   T   T
  0.8361465551193027  0.6673071801449372  0.4970355563755784   T   T   T
  0.7500000000000000  0.5000000000000000  0.3474500000000020   F   F   F
  0.9166700000000034  0.5833299999999966  0.1974799999999988   F   F   F
  0.0833299999999966  0.9166700000000034  0.2724699999999984   F   F   F
  0.1637525046023554  0.8306852363482955  0.4215076066172556   T   T   T
  0.0807074137509116  0.9131963530919301  0.4966380384110883   T   T   T
  0.0000000000000000  0.7500000000000000  0.3474500000000020   F   F   F
  0.1666700000000034  0.8333299999999966  0.1974799999999988   F   F   F
  0.3333299999999966  0.9166700000000034  0.2724699999999984   F   F   F
  0.4193061738643021  0.8307091624731148  0.4275902093909642   T   T   T
  0.3281994308977013  0.9162403192839337  0.4922231220325892   T   T   T
  0.2500000000000000  0.7500000000000000  0.3474500000000020   F   F   F
  0.4166700000000034  0.8333299999999966  0.1974799999999988   F   F   F
  0.4764199637930115  0.7739182897884728  0.5715483997158303   T   T   T
  0.5833299999999966  0.9166700000000034  0.2724699999999984   F   F   F
  0.6669180313756639  0.8340294676220120  0.4237026217848769   T   T   T
  0.5959282400115539  0.9266684968408889  0.5016387593711604   T   T   T
  0.5000000000000000  0.7500000000000000  0.3474500000000020   F   F   F
  0.6666700000000034  0.8333299999999966  0.1974799999999988   F   F   F
  0.8333299999999966  0.9166700000000034  0.2724699999999984   F   F   F
  0.9161849012323019  0.8322321963745267  0.4214070714474110   T   T   T
  0.8382541850800225  0.9177637452974347  0.4960992184730754   T   T   T
  0.7500000000000000  0.7500000000000000  0.3474500000000020   F   F   F
  0.9166700000000034  0.8333299999999966  0.1974799999999988   F   F   F
  0.4975065713393856  0.4582665540550876  0.5821291464588512   T   T   T
  0.2943017976734322  0.7539813646244680  0.5820565918638955   T   T   T
  0.4942411606063744  0.9512733935520910  0.5818882856765619   T   T   T
  0.5375070862546345  0.3745754549218264  0.6810274556566777   T   T   T
  0.3739311332515122  0.7073969821693751  0.6806848453807454   T   T   T
  0.5479008379937653  0.8781131836458476  0.6815431625097337   T   T   T
  0.6565428791437665  0.3605564838288053  0.5921333908329952   T   T   T
  0.3887625983018934  0.5921409114594343  0.5886424741330464   T   T   T
  0.6577518181251822  0.8583115367054184  0.5875550810123733   T   T   T
  0.2960994510853230  0.2516238726461933  0.5842917126176816   T   T   T
  0.3713178852456190  0.1958213227009978  0.6816447764645035   T   T   T
  0.3964651402891553  0.0937447756692439  0.5850857694942737   T   T   T
  0.5840518867510589  0.9144717339455620  0.6031276304483125   T   T   T
  0.3320629327706017  0.6652339064396990  0.6037678048518060   T   T   T
  0.5841338125340697  0.4186197981749205  0.6053558654647253   T   T   T
  0.3368904011749067  0.1638667393095259  0.6027387581334317   T   T   T
 
  0.00000000E+00  0.00000000E+00  0.00000000E+00
  0.00000000E+00  0.00000000E+00  0.00000000E+00
  0.00000000E+00  0.00000000E+00  0.00000000E+00
  0.00000000E+00  0.00000000E+00  0.00000000E+00
  0.00000000E+00  0.00000000E+00  0.00000000E+00
  0.00000000E+00  0.00000000E+00  0.00000000E+00
  0.00000000E+00  0.00000000E+00  0.00000000E+00
  0.00000000E+00  0.00000000E+00  0.00000000E+00
  0.00000000E+00  0.00000000E+00  0.00000000E+00
  0.00000000E+00  0.00000000E+00  0.00000000E+00
  0.00000000E+00  0.00000000E+00  0.00000000E+00
  0.00000000E+00  0.00000000E+00  0.00000000E+00
  0.00000000E+00  0.00000000E+00  0.00000000E+00
  0.00000000E+00  0.00000000E+00  0.00000000E+00
  0.00000000E+00  0.00000000E+00  0.00000000E+00
  0.00000000E+00  0.00000000E+00  0.00000000E+00
  0.00000000E+00  0.00000000E+00  0.00000000E+00
  0.00000000E+00  0.00000000E+00  0.00000000E+00
  0.00000000E+00  0.00000000E+00  0.00000000E+00
  0.00000000E+00  0.00000000E+00  0.00000000E+00
  0.00000000E+00  0.00000000E+00  0.00000000E+00
  0.00000000E+00  0.00000000E+00  0.00000000E+00
  0.00000000E+00  0.00000000E+00  0.00000000E+00
  0.00000000E+00  0.00000000E+00  0.00000000E+00
  0.00000000E+00  0.00000000E+00  0.00000000E+00
  0.00000000E+00  0.00000000E+00  0.00000000E+00
  0.00000000E+00  0.00000000E+00  0.00000000E+00
  0.00000000E+00  0.00000000E+00  0.00000000E+00
  0.00000000E+00  0.00000000E+00  0.00000000E+00
  0.00000000E+00  0.00000000E+00  0.00000000E+00
  0.00000000E+00  0.00000000E+00  0.00000000E+00
  0.00000000E+00  0.00000000E+00  0.00000000E+00
  0.00000000E+00  0.00000000E+00  0.00000000E+00
  0.00000000E+00  0.00000000E+00  0.00000000E+00
  0.00000000E+00  0.00000000E+00  0.00000000E+00
  0.00000000E+00  0.00000000E+00  0.00000000E+00
  0.00000000E+00  0.00000000E+00  0.00000000E+00
  0.00000000E+00  0.00000000E+00  0.00000000E+00
  0.00000000E+00  0.00000000E+00  0.00000000E+00
  0.00000000E+00  0.00000000E+00  0.00000000E+00
  0.00000000E+00  0.00000000E+00  0.00000000E+00
  0.00000000E+00  0.00000000E+00  0.00000000E+00
  0.00000000E+00  0.00000000E+00  0.00000000E+00
  0.00000000E+00  0.00000000E+00  0.00000000E+00
  0.00000000E+00  0.00000000E+00  0.00000000E+00
  0.00000000E+00  0.00000000E+00  0.00000000E+00
  0.00000000E+00  0.00000000E+00  0.00000000E+00
  0.00000000E+00  0.00000000E+00  0.00000000E+00
  0.00000000E+00  0.00000000E+00  0.00000000E+00
  0.00000000E+00  0.00000000E+00  0.00000000E+00
  0.00000000E+00  0.00000000E+00  0.00000000E+00
  0.00000000E+00  0.00000000E+00  0.00000000E+00
  0.00000000E+00  0.00000000E+00  0.00000000E+00
  0.00000000E+00  0.00000000E+00  0.00000000E+00
  0.00000000E+00  0.00000000E+00  0.00000000E+00
  0.00000000E+00  0.00000000E+00  0.00000000E+00
  0.00000000E+00  0.00000000E+00  0.00000000E+00
  0.00000000E+00  0.00000000E+00  0.00000000E+00
  0.00000000E+00  0.00000000E+00  0.00000000E+00
  0.00000000E+00  0.00000000E+00  0.00000000E+00
  0.00000000E+00  0.00000000E+00  0.00000000E+00
  0.00000000E+00  0.00000000E+00  0.00000000E+00
  0.00000000E+00  0.00000000E+00  0.00000000E+00
  0.00000000E+00  0.00000000E+00  0.00000000E+00
  0.00000000E+00  0.00000000E+00  0.00000000E+00
  0.00000000E+00  0.00000000E+00  0.00000000E+00
  0.00000000E+00  0.00000000E+00  0.00000000E+00
  0.00000000E+00  0.00000000E+00  0.00000000E+00
  0.00000000E+00  0.00000000E+00  0.00000000E+00
  0.00000000E+00  0.00000000E+00  0.00000000E+00
  0.00000000E+00  0.00000000E+00  0.00000000E+00
  0.00000000E+00  0.00000000E+00  0.00000000E+00
  0.00000000E+00  0.00000000E+00  0.00000000E+00
  0.00000000E+00  0.00000000E+00  0.00000000E+00
  0.00000000E+00  0.00000000E+00  0.00000000E+00
  0.00000000E+00  0.00000000E+00  0.00000000E+00
  0.00000000E+00  0.00000000E+00  0.00000000E+00
  0.00000000E+00  0.00000000E+00  0.00000000E+00
  0.00000000E+00  0.00000000E+00  0.00000000E+00
  0.00000000E+00  0.00000000E+00  0.00000000E+00
  0.00000000E+00  0.00000000E+00  0.00000000E+00
  0.00000000E+00  0.00000000E+00  0.00000000E+00
  0.00000000E+00  0.00000000E+00  0.00000000E+00
  0.00000000E+00  0.00000000E+00  0.00000000E+00
  0.00000000E+00  0.00000000E+00  0.00000000E+00
  0.00000000E+00  0.00000000E+00  0.00000000E+00
  0.00000000E+00  0.00000000E+00  0.00000000E+00
  0.00000000E+00  0.00000000E+00  0.00000000E+00
  0.00000000E+00  0.00000000E+00  0.00000000E+00
  0.00000000E+00  0.00000000E+00  0.00000000E+00
  0.00000000E+00  0.00000000E+00  0.00000000E+00
  0.00000000E+00  0.00000000E+00  0.00000000E+00
  0.00000000E+00  0.00000000E+00  0.00000000E+00
  0.00000000E+00  0.00000000E+00  0.00000000E+00
  0.00000000E+00  0.00000000E+00  0.00000000E+00
  0.00000000E+00  0.00000000E+00  0.00000000E+00
  0.00000000E+00  0.00000000E+00  0.00000000E+00
  0.00000000E+00  0.00000000E+00  0.00000000E+00
  0.00000000E+00  0.00000000E+00  0.00000000E+00
  0.00000000E+00  0.00000000E+00  0.00000000E+00
  0.00000000E+00  0.00000000E+00  0.00000000E+00
  0.00000000E+00  0.00000000E+00  0.00000000E+00
  0.00000000E+00  0.00000000E+00  0.00000000E+00
  0.00000000E+00  0.00000000E+00  0.00000000E+00
  0.00000000E+00  0.00000000E+00  0.00000000E+00
  0.00000000E+00  0.00000000E+00  0.00000000E+00
  0.00000000E+00  0.00000000E+00  0.00000000E+00
  0.00000000E+00  0.00000000E+00  0.00000000E+00
  0.00000000E+00  0.00000000E+00  0.00000000E+00
  0.00000000E+00  0.00000000E+00  0.00000000E+00
  0.00000000E+00  0.00000000E+00  0.00000000E+00
  0.00000000E+00  0.00000000E+00  0.00000000E+00
  0.00000000E+00  0.00000000E+00  0.00000000E+00
  0.00000000E+00  0.00000000E+00  0.00000000E+00
  0.00000000E+00  0.00000000E+00  0.00000000E+00
  0.00000000E+00  0.00000000E+00  0.00000000E+00
  0.00000000E+00  0.00000000E+00  0.00000000E+00
  0.00000000E+00  0.00000000E+00  0.00000000E+00
  0.00000000E+00  0.00000000E+00  0.00000000E+00
  0.00000000E+00  0.00000000E+00  0.00000000E+00
  0.00000000E+00  0.00000000E+00  0.00000000E+00
  0.00000000E+00  0.00000000E+00  0.00000000E+00
  0.00000000E+00  0.00000000E+00  0.00000000E+00
  0.00000000E+00  0.00000000E+00  0.00000000E+00
  0.00000000E+00  0.00000000E+00  0.00000000E+00
  0.00000000E+00  0.00000000E+00  0.00000000E+00
  0.00000000E+00  0.00000000E+00  0.00000000E+00
  0.00000000E+00  0.00000000E+00  0.00000000E+00
  0.00000000E+00  0.00000000E+00  0.00000000E+00
  0.00000000E+00  0.00000000E+00  0.00000000E+00
  0.00000000E+00  0.00000000E+00  0.00000000E+00
  0.00000000E+00  0.00000000E+00  0.00000000E+00
  0.00000000E+00  0.00000000E+00  0.00000000E+00
  0.00000000E+00  0.00000000E+00  0.00000000E+00
