CeO2\(1\1\1)_44_vO\(2)-2
1.0
       15.4643001556         0.0000000000         0.0000000000
       -7.7321500778        13.3924767865         0.0000000000
        0.0000000000         0.0000000000        21.0482006073
   Ce    O   Ir
   32   98    4
Direct
     0.000000000         0.000000000         0.459930000
     0.166670000         0.083330000         0.309960000
     0.250000000         0.000000000         0.459930000
     0.416670000         0.083330000         0.309960000
     0.500000000         0.000000000         0.459930000
     0.666670000         0.083330000         0.309960000
     0.750000000         0.000000000         0.459930000
     0.916670000         0.083330000         0.309960000
     0.000000000         0.250000000         0.459930000
     0.166670000         0.333330000         0.309960000
     0.250000000         0.250000000         0.459930000
     0.416670000         0.333330000         0.309960000
     0.500000000         0.250000000         0.459930000
     0.666670000         0.333330000         0.309960000
     0.750000000         0.250000000         0.459930000
     0.916670000         0.333330000         0.309960000
     0.000000000         0.500000000         0.459930000
     0.166670000         0.583330000         0.309960000
     0.250000000         0.500000000         0.459930000
     0.416670000         0.583330000         0.309960000
     0.500000000         0.500000000         0.459930000
     0.666670000         0.583330000         0.309960000
     0.750000000         0.500000000         0.459930000
     0.916670000         0.583330000         0.309960000
     0.000000000         0.750000000         0.459930000
     0.166670000         0.833330000         0.309960000
     0.250000000         0.750000000         0.459930000
     0.416670000         0.833330000         0.309960000
     0.500000000         0.750000000         0.459930000
     0.666670000         0.833330000         0.309960000
     0.750000000         0.750000000         0.459930000
     0.916670000         0.833330000         0.309960000
     0.083330000         0.166670000         0.272470000
     0.166670000         0.083330000         0.422440000
     0.083330000         0.166670000         0.497420000
     0.000000000         0.000000000         0.347450000
     0.166670000         0.083330000         0.197480000
     0.208420000         0.041580000         0.581160000
     0.333330000         0.166670000         0.272470000
     0.416670000         0.083330000         0.422440000
     0.333330000         0.166670000         0.497420000
     0.250000000         0.000000000         0.347450000
     0.416670000         0.083330000         0.197480000
     0.583330000         0.166670000         0.272470000
     0.666670000         0.083330000         0.422440000
     0.583330000         0.166670000         0.497420000
     0.500000000         0.000000000         0.347450000
     0.666670000         0.083330000         0.197480000
     0.708720000         0.041280000         0.584440000
     0.833330000         0.166670000         0.272470000
     0.916670000         0.083330000         0.422440000
     0.833330000         0.166670000         0.497420000
     0.750000000         0.000000000         0.347450000
     0.916670000         0.083330000         0.197480000
     0.083330000         0.416670000         0.272470000
     0.166670000         0.333330000         0.422440000
     0.083330000         0.416670000         0.497420000
     0.000000000         0.250000000         0.347450000
     0.166670000         0.333330000         0.197480000
     0.333330000         0.416670000         0.272470000
     0.416670000         0.333330000         0.422440000
     0.333330000         0.416670000         0.497420000
     0.250000000         0.250000000         0.347450000
     0.416670000         0.333330000         0.197480000
     0.458420000         0.291580000         0.581160000
     0.583330000         0.416670000         0.272470000
     0.666670000         0.333330000         0.422440000
     0.583330000         0.416670000         0.497420000
     0.500000000         0.250000000         0.347450000
     0.666670000         0.333330000         0.197480000
     0.833330000         0.416670000         0.272470000
     0.916670000         0.333330000         0.422440000
     0.833330000         0.416670000         0.497420000
     0.750000000         0.250000000         0.347450000
     0.916670000         0.333330000         0.197480000
     0.083330000         0.666670000         0.272470000
     0.166670000         0.583330000         0.422440000
     0.083330000         0.666670000         0.497420000
     0.000000000         0.500000000         0.347450000
     0.166670000         0.583330000         0.197480000
     0.208720000         0.541280000         0.584440000
     0.333330000         0.666670000         0.272470000
     0.416670000         0.583330000         0.422440000
     0.333330000         0.666670000         0.497420000
     0.250000000         0.500000000         0.347450000
     0.416670000         0.583330000         0.197480000
     0.583330000         0.666670000         0.272470000
     0.666670000         0.583330000         0.422440000
     0.583330000         0.666670000         0.497420000
     0.500000000         0.500000000         0.347450000
     0.666670000         0.583330000         0.197480000
     0.708420000         0.541580000         0.581160000
     0.833330000         0.666670000         0.272470000
     0.916670000         0.583330000         0.422440000
     0.833330000         0.666670000         0.497420000
     0.750000000         0.500000000         0.347450000
     0.916670000         0.583330000         0.197480000
     0.083330000         0.916670000         0.272470000
     0.166670000         0.833330000         0.422440000
     0.083330000         0.916670000         0.497420000
     0.000000000         0.750000000         0.347450000
     0.166670000         0.833330000         0.197480000
     0.333330000         0.916670000         0.272470000
     0.416670000         0.833330000         0.422440000
     0.333330000         0.916670000         0.497420000
     0.250000000         0.750000000         0.347450000
     0.416670000         0.833330000         0.197480000
     0.458720000         0.791280000         0.584440000
     0.583330000         0.916670000         0.272470000
     0.666670000         0.833330000         0.422440000
     0.583330000         0.916670000         0.497420000
     0.500000000         0.750000000         0.347450000
     0.666670000         0.833330000         0.197480000
     0.833330000         0.916670000         0.272470000
     0.916670000         0.833330000         0.422440000
     0.833330000         0.916670000         0.497420000
     0.750000000         0.750000000         0.347450000
     0.916670000         0.833330000         0.197480000
     0.514260000         0.492200000         0.583860000
     0.266520000         0.739940000         0.590990000
     0.516520000         0.989940000         0.590990000
     0.588510000         0.419510000         0.672580000
     0.337540000         0.670480000         0.672500000
     0.587540000         0.920480000         0.672500000
     0.659290000         0.348690000         0.580110000
     0.409390000         0.598590000         0.584240000
     0.659390000         0.848590000         0.584240000
     0.261120000         0.241670000         0.581880000
     0.335370000         0.168980000         0.670600000
     0.406140000         0.098160000         0.578130000
     0.585020000         0.914240000         0.587490000
     0.341370000         0.673290000         0.585040000
     0.597360000         0.429970000         0.581570000
     0.344210000         0.179450000         0.579590000
