Generated by VASPKIT code
 1.000000
   15.4643001556000002    0.0000000000000000    0.0000000000000000
   -7.7321500778000001   13.3924767864999996    0.0000000000000000
    0.0000000000000000    0.0000000000000000   21.0482006073000001
   Ce   O    Ir
    32    98     4
Selective Dynamics
Direct
    0.0000000000000000    0.0000000000000000    0.4599300000000000    T  T  T    Ce001
    0.1666700000000000    0.0833300000000000    0.3099600000000000    F  F  F    Ce002
    0.2500000000000000    0.0000000000000000    0.4599300000000000    T  T  T    Ce003
    0.4166700000000000    0.0833300000000000    0.3099600000000000    F  F  F    Ce004
    0.5000000000000000    0.0000000000000000    0.4599300000000000    T  T  T    Ce005
    0.6666700000000000    0.0833300000000000    0.3099600000000000    F  F  F    Ce006
    0.7500000000000000    0.0000000000000000    0.4599300000000000    T  T  T    Ce007
    0.9166700000000000    0.0833300000000000    0.3099600000000000    F  F  F    Ce008
    0.0000000000000000    0.2500000000000000    0.4599300000000000    T  T  T    Ce009
    0.1666700000000000    0.3333300000000000    0.3099600000000000    F  F  F    Ce010
    0.2500000000000000    0.2500000000000000    0.4599300000000000    T  T  T    Ce011
    0.4166700000000000    0.3333300000000000    0.3099600000000000    F  F  F    Ce012
    0.5000000000000000    0.2500000000000000    0.4599300000000000    T  T  T    Ce013
    0.6666700000000000    0.3333300000000000    0.3099600000000000    F  F  F    Ce014
    0.7500000000000000    0.2500000000000000    0.4599300000000000    T  T  T    Ce015
    0.9166700000000000    0.3333300000000000    0.3099600000000000    F  F  F    Ce016
    0.0000000000000000    0.5000000000000000    0.4599300000000000    T  T  T    Ce017
    0.1666700000000000    0.5833300000000000    0.3099600000000000    F  F  F    Ce018
    0.2500000000000000    0.5000000000000000    0.4599300000000000    T  T  T    Ce019
    0.4166700000000000    0.5833300000000000    0.3099600000000000    F  F  F    Ce020
    0.5000000000000000    0.5000000000000000    0.4599300000000000    T  T  T    Ce021
    0.6666700000000000    0.5833300000000000    0.3099600000000000    F  F  F    Ce022
    0.7500000000000000    0.5000000000000000    0.4599300000000000    T  T  T    Ce023
    0.9166700000000000    0.5833300000000000    0.3099600000000000    F  F  F    Ce024
    0.0000000000000000    0.7500000000000000    0.4599300000000000    T  T  T    Ce025
    0.1666700000000000    0.8333300000000000    0.3099600000000000    F  F  F    Ce026
    0.2500000000000000    0.7500000000000000    0.4599300000000000    T  T  T    Ce027
    0.4166700000000000    0.8333300000000000    0.3099600000000000    F  F  F    Ce028
    0.5000000000000000    0.7500000000000000    0.4599300000000000    T  T  T    Ce029
    0.6666700000000000    0.8333300000000000    0.3099600000000000    F  F  F    Ce030
    0.7500000000000000    0.7500000000000000    0.4599300000000000    T  T  T    Ce031
    0.9166700000000000    0.8333300000000000    0.3099600000000000    F  F  F    Ce032
    0.0833300000000000    0.1666700000000000    0.2724700000000000    F  F  F     O001
    0.1666700000000000    0.0833300000000000    0.4224400000000000    T  T  T     O002
    0.0833300000000000    0.1666700000000000    0.4974200000000000    T  T  T     O003
    0.0000000000000000    0.0000000000000000    0.3474500000000000    F  F  F     O004
    0.1666700000000000    0.0833300000000000    0.1974800000000000    F  F  F     O005
    0.2084200000000000    0.0415800000000000    0.5811600000000000    T  T  T     O006
    0.3333300000000000    0.1666700000000000    0.2724700000000000    F  F  F     O007
    0.4166700000000000    0.0833300000000000    0.4224400000000000    T  T  T     O008
    0.3333300000000000    0.1666700000000000    0.4974200000000000    T  T  T     O009
    0.2500000000000000    0.0000000000000000    0.3474500000000000    F  F  F     O010
    0.4166700000000000    0.0833300000000000    0.1974800000000000    F  F  F     O011
    0.5833300000000000    0.1666700000000000    0.2724700000000000    F  F  F     O012
    0.6666700000000000    0.0833300000000000    0.4224400000000000    T  T  T     O013
    0.5833300000000000    0.1666700000000000    0.4974200000000000    T  T  T     O014
    0.5000000000000000    0.0000000000000000    0.3474500000000000    F  F  F     O015
    0.6666700000000000    0.0833300000000000    0.1974800000000000    F  F  F     O016
    0.7087200000000000    0.0412800000000000    0.5844400000000000    T  T  T     O017
    0.8333300000000000    0.1666700000000000    0.2724700000000000    F  F  F     O018
    0.9166700000000000    0.0833300000000000    0.4224400000000000    T  T  T     O019
    0.8333300000000000    0.1666700000000000    0.4974200000000000    T  T  T     O020
    0.7500000000000000    0.0000000000000000    0.3474500000000000    F  F  F     O021
    0.9166700000000000    0.0833300000000000    0.1974800000000000    F  F  F     O022
    0.0833300000000000    0.4166700000000000    0.2724700000000000    F  F  F     O023
    0.1666700000000000    0.3333300000000000    0.4224400000000000    T  T  T     O024
    0.0833300000000000    0.4166700000000000    0.4974200000000000    T  T  T     O025
    0.0000000000000000    0.2500000000000000    0.3474500000000000    F  F  F     O026
    0.1666700000000000    0.3333300000000000    0.1974800000000000    F  F  F     O027
    0.3333300000000000    0.4166700000000000    0.2724700000000000    F  F  F     O028
    0.4166700000000000    0.3333300000000000    0.4224400000000000    T  T  T     O029
    0.3333300000000000    0.4166700000000000    0.4974200000000000    T  T  T     O030
    0.2500000000000000    0.2500000000000000    0.3474500000000000    F  F  F     O031
    0.4166700000000000    0.3333300000000000    0.1974800000000000    F  F  F     O032
    0.4584200000000000    0.2915800000000000    0.5811600000000000    T  T  T     O033
    0.5833300000000000    0.4166700000000000    0.2724700000000000    F  F  F     O034
    0.6666700000000000    0.3333300000000000    0.4224400000000000    T  T  T     O035
    0.5833300000000000    0.4166700000000000    0.4974200000000000    T  T  T     O036
    0.5000000000000000    0.2500000000000000    0.3474500000000000    F  F  F     O037
    0.6666700000000000    0.3333300000000000    0.1974800000000000    F  F  F     O038
    0.8333300000000000    0.4166700000000000    0.2724700000000000    F  F  F     O039
    0.9166700000000000    0.3333300000000000    0.4224400000000000    T  T  T     O040
    0.8333300000000000    0.4166700000000000    0.4974200000000000    T  T  T     O041
    0.7500000000000000    0.2500000000000000    0.3474500000000000    F  F  F     O042
    0.9166700000000000    0.3333300000000000    0.1974800000000000    F  F  F     O043
    0.0833300000000000    0.6666700000000000    0.2724700000000000    F  F  F     O044
    0.1666700000000000    0.5833300000000000    0.4224400000000000    T  T  T     O045
    0.0833300000000000    0.6666700000000000    0.4974200000000000    T  T  T     O046
    0.0000000000000000    0.5000000000000000    0.3474500000000000    F  F  F     O047
    0.1666700000000000    0.5833300000000000    0.1974800000000000    F  F  F     O048
    0.2087200000000000    0.5412800000000000    0.5844400000000000    T  T  T     O049
    0.3333300000000000    0.6666700000000000    0.2724700000000000    F  F  F     O050
    0.4166700000000000    0.5833300000000000    0.4224400000000000    T  T  T     O051
    0.3333300000000000    0.6666700000000000    0.4974200000000000    T  T  T     O052
    0.2500000000000000    0.5000000000000000    0.3474500000000000    F  F  F     O053
    0.4166700000000000    0.5833300000000000    0.1974800000000000    F  F  F     O054
    0.5833300000000000    0.6666700000000000    0.2724700000000000    F  F  F     O055
    0.6666700000000000    0.5833300000000000    0.4224400000000000    T  T  T     O056
    0.5833300000000000    0.6666700000000000    0.4974200000000000    T  T  T     O057
    0.5000000000000000    0.5000000000000000    0.3474500000000000    F  F  F     O058
    0.6666700000000000    0.5833300000000000    0.1974800000000000    F  F  F     O059
    0.7084200000000000    0.5415800000000000    0.5811600000000000    T  T  T     O060
    0.8333300000000000    0.6666700000000000    0.2724700000000000    F  F  F     O061
    0.9166700000000000    0.5833300000000000    0.4224400000000000    T  T  T     O062
    0.8333300000000000    0.6666700000000000    0.4974200000000000    T  T  T     O063
    0.7500000000000000    0.5000000000000000    0.3474500000000000    F  F  F     O064
    0.9166700000000000    0.5833300000000000    0.1974800000000000    F  F  F     O065
    0.0833300000000000    0.9166700000000000    0.2724700000000000    F  F  F     O066
    0.1666700000000000    0.8333300000000000    0.4224400000000000    T  T  T     O067
    0.0833300000000000    0.9166700000000000    0.4974200000000000    T  T  T     O068
    0.0000000000000000    0.7500000000000000    0.3474500000000000    F  F  F     O069
    0.1666700000000000    0.8333300000000000    0.1974800000000000    F  F  F     O070
    0.3333300000000000    0.9166700000000000    0.2724700000000000    F  F  F     O071
    0.4166700000000000    0.8333300000000000    0.4224400000000000    T  T  T     O072
    0.3333300000000000    0.9166700000000000    0.4974200000000000    T  T  T     O073
    0.2500000000000000    0.7500000000000000    0.3474500000000000    F  F  F     O074
    0.4166700000000000    0.8333300000000000    0.1974800000000000    F  F  F     O075
    0.4587200000000000    0.7912800000000000    0.5844400000000000    T  T  T     O076
    0.5833300000000000    0.9166700000000000    0.2724700000000000    F  F  F     O077
    0.6666700000000000    0.8333300000000000    0.4224400000000000    T  T  T     O078
    0.5833300000000000    0.9166700000000000    0.4974200000000000    T  T  T     O079
    0.5000000000000000    0.7500000000000000    0.3474500000000000    F  F  F     O080
    0.6666700000000000    0.8333300000000000    0.1974800000000000    F  F  F     O081
    0.8333300000000000    0.9166700000000000    0.2724700000000000    F  F  F     O082
    0.9166700000000000    0.8333300000000000    0.4224400000000000    T  T  T     O083
    0.8333300000000000    0.9166700000000000    0.4974200000000000    T  T  T     O084
    0.7500000000000000    0.7500000000000000    0.3474500000000000    F  F  F     O085
    0.9166700000000000    0.8333300000000000    0.1974800000000000    F  F  F     O086
    0.5142600000000001    0.4922000000000000    0.5838600000000000    T  T  T     O087
    0.2665200000000000    0.7399400000000000    0.5909900000000000    T  T  T     O088
    0.5165200000000000    0.9899400000000000    0.5909900000000000    T  T  T     O089
    0.5885100000000000    0.4195100000000000    0.6725800000000000    T  T  T     O090
    0.3375400000000000    0.6704800000000000    0.6725000000000000    T  T  T     O091
    0.5875400000000000    0.9204800000000000    0.6725000000000000    T  T  T     O092
    0.6592900000000000    0.3486900000000000    0.5801100000000000    T  T  T     O093
    0.4093900000000000    0.5985900000000000    0.5842400000000000    T  T  T     O094
    0.6593900000000000    0.8485900000000000    0.5842400000000000    T  T  T     O095
    0.2611200000000000    0.2416700000000000    0.5818800000000000    T  T  T     O096
    0.3353700000000000    0.1689800000000000    0.6706000000000000    T  T  T     O097
    0.4061400000000000    0.0981600000000000    0.5781300000000000    T  T  T     O098
    0.5850200000000000    0.9142400000000001    0.5874900000000000    T  T  T    Ir001
    0.3413700000000000    0.6732900000000001    0.5850400000000000    T  T  T    Ir002
    0.5973600000000000    0.4299700000000000    0.5815700000000000    T  T  T    Ir003
    0.3442100000000000    0.1794500000000000    0.5795900000000000    T  T  T    Ir004
