cif2pos.py                              
   1.00000000000000     
     3.8660999999999999    0.0000000000000000    0.0000000000000000
    -1.9330499999999999    3.3481408099999999    0.0000000000000000
     0.0000000000000000    0.0000000000000000   23.6807000000000016
   Ce   O 
     3     6
Direct
  0.6999663537679908  0.3000336462320092  0.3109786136336794
  0.0335384480700682  0.9664615519299318  0.4373101369588852
  0.3668856250395649  0.6331143749604351  0.1692075157126638
  0.0319846014518674  0.9680153985481326  0.1574011191301423
  0.6996789395720455  0.3003210604279545  0.4308555617001701
  0.3667526913729020  0.6332473086270909  0.2919290150735989
  0.6996210890070884  0.3003789109929116  0.2188846187717743
  0.0332235297499111  0.9667764702500889  0.3518101828915690
  0.3683487219685588  0.6316512780314412  0.0913232361275149
 
  0.00000000E+00  0.00000000E+00  0.00000000E+00
  0.00000000E+00  0.00000000E+00  0.00000000E+00
  0.00000000E+00  0.00000000E+00  0.00000000E+00
  0.00000000E+00  0.00000000E+00  0.00000000E+00
  0.00000000E+00  0.00000000E+00  0.00000000E+00
  0.00000000E+00  0.00000000E+00  0.00000000E+00
  0.00000000E+00  0.00000000E+00  0.00000000E+00
  0.00000000E+00  0.00000000E+00  0.00000000E+00
  0.00000000E+00  0.00000000E+00  0.00000000E+00
