cif2pos.py                              
   1.00000000000000     
     3.8660999999999999    0.0000000000000000    0.0000000000000000
    -1.9330499999999999    3.3481408099999999    0.0000000000000000
     0.0000000000000000    0.0000000000000000   23.6807000000000016
   Ce   O 
     3     6
Direct
  0.6999663537679939  0.3000336462320061  0.3109786136336798
  0.0335384480700685  0.9664615519299317  0.4373101369588884
  0.3668856250395641  0.6331143749604359  0.1692075157126617
  0.0319846014518641  0.9680153985481359  0.1574011191301415
  0.6996789395720475  0.3003210604279525  0.4308555617001726
  0.3667526913729055  0.6332473086270944  0.2919290150735972
  0.6996210890070906  0.3003789109929095  0.2188846187717743
  0.0332235297499100  0.9667764702500899  0.3518101828915655
  0.3683487219685602  0.6316512780314399  0.0913232361275168
 
  0.00000000E+00  0.00000000E+00  0.00000000E+00
  0.00000000E+00  0.00000000E+00  0.00000000E+00
  0.00000000E+00  0.00000000E+00  0.00000000E+00
  0.00000000E+00  0.00000000E+00  0.00000000E+00
  0.00000000E+00  0.00000000E+00  0.00000000E+00
  0.00000000E+00  0.00000000E+00  0.00000000E+00
  0.00000000E+00  0.00000000E+00  0.00000000E+00
  0.00000000E+00  0.00000000E+00  0.00000000E+00
  0.00000000E+00  0.00000000E+00  0.00000000E+00
