Generated by VASPKIT code               
   1.00000000000000     
    11.5982000000000003    0.0000000000000000    0.0000000000000000
    -5.7990999999999975   10.0443358381726764    0.0000000000000000
     0.0000000000000000    0.0000000000000000   21.0482000000000014
  Ce              O               Ir            
    21    63     6
Selective dynamics
Direct
  0.0269579724692799  0.0131806172308170  0.4600992938223789   T   T   T
  0.2269231578126806  0.1135750589367946  0.3076761825474195   T   T   T
  0.1111099999999965  0.2222200000000001  0.1599900000000005   F   F   F
  0.5556121548018084  0.1109495137437567  0.3077868398978849   T   T   T
  0.4444400000000002  0.2222200000000001  0.1599900000000005   F   F   F
  0.8946180130043466  0.1135905185631831  0.3146494462568912   T   T   T
  0.7777799999999999  0.2222200000000001  0.1599900000000005   F   F   F
  0.0267174325159929  0.3463581097248190  0.4601058298281326   T   T   T
  0.2272903116380823  0.4470584022010424  0.3076258704795564   T   T   T
  0.1111099999999965  0.5555599999999998  0.1599900000000005   F   F   F
  0.5558834763126984  0.4451496428134050  0.3068260224559598   T   T   T
  0.4444400000000002  0.5555599999999998  0.1599900000000005   F   F   F
  0.8948062792244337  0.4472072289211775  0.3146024344132315   T   T   T
  0.7777799999999999  0.5555599999999998  0.1599900000000005   F   F   F
  0.0275516497832177  0.6802725753522115  0.4601308469967442   T   T   T
  0.2270350288212072  0.7800805465677657  0.3076051946176968   T   T   T
  0.1111099999999965  0.8888900000000035  0.1599900000000005   F   F   F
  0.5559379610790353  0.7775655752221921  0.3070884472910035   T   T   T
  0.4444400000000002  0.8888900000000035  0.1599900000000005   F   F   F
  0.8941710306109749  0.7802729198097866  0.3146670356642022   T   T   T
  0.7777799999999999  0.8888900000000035  0.1599900000000005   F   F   F
  0.0000000000000000  0.0000000000000000  0.1225000000000023   F   F   F
  0.1037014815493167  0.2184181736964846  0.2764339511687861   T   T   T
  0.2435482298489423  0.1228516988382949  0.4259741444775288   T   T   T
  0.1111099999999965  0.2222200000000001  0.0475100000000026   F   F   F
  0.1527276120523066  0.2425155783871961  0.5053971043703482   T   T   T
  0.0116379371926032  0.0052899594256097  0.3551421881186321   T   T   T
  0.2222200000000001  0.1111099999999965  0.1974799999999988   F   F   F
  0.3333299999999966  0.0000000000000000  0.1225000000000023   F   F   F
  0.4593703128166428  0.2294862333091024  0.2728359365933153   T   T   T
  0.5117066662361598  0.0881565083382974  0.4221140622022631   T   T   T
  0.4444400000000002  0.2222200000000001  0.0475100000000026   F   F   F
  0.4397553275688622  0.2243609783725236  0.4879988645331003   T   T   T
  0.3309830590561149  0.9990057787050058  0.3351810595527706   T   T   T
  0.5555599999999998  0.1111099999999965  0.1974799999999988   F   F   F
  0.6666700000000034  0.0000000000000000  0.1225000000000023   F   F   F
  0.7754274051819728  0.2210591556336845  0.2802033420917244   T   T   T
  0.9258693665646619  0.1286065664011377  0.4301312420435426   T   T   T
  0.7777799999999999  0.2222200000000001  0.0475100000000026   F   F   F
  0.7030207137743261  0.1695144900085685  0.4823619609166133   T   T   T
  0.6680657428097698  0.0000349264656249  0.3637074030728026   T   T   T
  0.8888899999999964  0.1111099999999965  0.1974799999999988   F   F   F
  0.0000000000000000  0.3333299999999966  0.1225000000000023   F   F   F
  0.1035899091429991  0.5518609732834212  0.2764187508899738   T   T   T
  0.2429758125186693  0.4547611348070858  0.4261084599240311   T   T   T
  0.1111099999999965  0.5555599999999998  0.0475100000000026   F   F   F
  0.1525510213411216  0.5766135281441960  0.5052165452259401   T   T   T
  0.0113510809797268  0.3389240605515402  0.3550268446308799   T   T   T
  0.2222200000000001  0.4444400000000002  0.1974799999999988   F   F   F
  0.3333299999999966  0.3333299999999966  0.1225000000000023   F   F   F
  0.4592589688309888  0.5629121227065875  0.2727630089658140   T   T   T
  0.5119085396289287  0.4226649180674020  0.4216997265827387   T   T   T
  0.4444400000000002  0.5555599999999998  0.0475100000000026   F   F   F
  0.4376799904745232  0.5531384469093090  0.4884567814554552   T   T   T
  0.3314199341377286  0.3324617419691787  0.3351405674473527   T   T   T
  0.5555599999999998  0.4444400000000002  0.1974799999999988   F   F   F
  0.6666700000000034  0.3333299999999966  0.1225000000000023   F   F   F
  0.7755701761900212  0.5541763567681400  0.2801814742242590   T   T   T
  0.9251383292380206  0.4616458643078072  0.4302685625704661   T   T   T
  0.7777799999999999  0.5555599999999998  0.0475100000000026   F   F   F
  0.7003151596525886  0.4990931171065376  0.4827336282593117   T   T   T
  0.6683160794696104  0.3331902018946885  0.3634341579197598   T   T   T
  0.8888899999999964  0.4444400000000002  0.1974799999999988   F   F   F
  0.0000000000000000  0.6666700000000034  0.1225000000000023   F   F   F
  0.1038390684523264  0.8852022963606941  0.2763018960294740   T   T   T
  0.2437944280714893  0.7879804028319284  0.4259207808598539   T   T   T
  0.1111099999999965  0.8888900000000035  0.0475100000000026   F   F   F
  0.1509080199970832  0.9084823932353641  0.5048166093073287   T   T   T
  0.0116467126598764  0.6724795303728096  0.3552050114640540   T   T   T
  0.2222200000000001  0.7777799999999999  0.1974799999999988   F   F   F
  0.3333299999999966  0.6666700000000034  0.1225000000000023   F   F   F
  0.4593533071555017  0.8965545535904952  0.2728408932478308   T   T   T
  0.5120943040238868  0.7536787547113956  0.4218329222042775   T   T   T
  0.4444400000000002  0.8888900000000035  0.0475100000000026   F   F   F
  0.4396912613959413  0.8852357397953317  0.4879677129487499   T   T   T
  0.3312408174019277  0.6657507931963935  0.3351353865147961   T   T   T
  0.5555599999999998  0.7777799999999999  0.1974799999999988   F   F   F
  0.6666699999999963  0.6666700000000034  0.1225000000000023   F   F   F
  0.7756011516154319  0.8879317953874348  0.2801537052833146   T   T   T
  0.9232826066122445  0.7938711223182320  0.4305724131080733   T   T   T
  0.7777799999999999  0.8888900000000035  0.0475100000000026   F   F   F
  0.7012040857381682  0.8457974196121372  0.4825279835825074   T   T   T
  0.6677322073874680  0.6664659413087355  0.3643872011257806   T   T   T
  0.8888899999999964  0.7777799999999999  0.1974799999999988   F   F   F
  0.3315712871354292  0.9963726821129902  0.4626050772883503   T   T   T
  0.6099624883623567  0.9864368486281179  0.4526730664543059   T   T   T
  0.3313630587789585  0.3289965405634851  0.4630450694593503   T   T   T
  0.6084355524824613  0.3253518560685243  0.4530115462182678   T   T   T
  0.3314890551855244  0.6640009411737259  0.4630508659917428   T   T   T
  0.6098198779513441  0.6547672535745354  0.4507516814969338   T   T   T
 
  0.00000000E+00  0.00000000E+00  0.00000000E+00
  0.00000000E+00  0.00000000E+00  0.00000000E+00
  0.00000000E+00  0.00000000E+00  0.00000000E+00
  0.00000000E+00  0.00000000E+00  0.00000000E+00
  0.00000000E+00  0.00000000E+00  0.00000000E+00
  0.00000000E+00  0.00000000E+00  0.00000000E+00
  0.00000000E+00  0.00000000E+00  0.00000000E+00
  0.00000000E+00  0.00000000E+00  0.00000000E+00
  0.00000000E+00  0.00000000E+00  0.00000000E+00
  0.00000000E+00  0.00000000E+00  0.00000000E+00
  0.00000000E+00  0.00000000E+00  0.00000000E+00
  0.00000000E+00  0.00000000E+00  0.00000000E+00
  0.00000000E+00  0.00000000E+00  0.00000000E+00
  0.00000000E+00  0.00000000E+00  0.00000000E+00
  0.00000000E+00  0.00000000E+00  0.00000000E+00
  0.00000000E+00  0.00000000E+00  0.00000000E+00
  0.00000000E+00  0.00000000E+00  0.00000000E+00
  0.00000000E+00  0.00000000E+00  0.00000000E+00
  0.00000000E+00  0.00000000E+00  0.00000000E+00
  0.00000000E+00  0.00000000E+00  0.00000000E+00
  0.00000000E+00  0.00000000E+00  0.00000000E+00
  0.00000000E+00  0.00000000E+00  0.00000000E+00
  0.00000000E+00  0.00000000E+00  0.00000000E+00
  0.00000000E+00  0.00000000E+00  0.00000000E+00
  0.00000000E+00  0.00000000E+00  0.00000000E+00
  0.00000000E+00  0.00000000E+00  0.00000000E+00
  0.00000000E+00  0.00000000E+00  0.00000000E+00
  0.00000000E+00  0.00000000E+00  0.00000000E+00
  0.00000000E+00  0.00000000E+00  0.00000000E+00
  0.00000000E+00  0.00000000E+00  0.00000000E+00
  0.00000000E+00  0.00000000E+00  0.00000000E+00
  0.00000000E+00  0.00000000E+00  0.00000000E+00
  0.00000000E+00  0.00000000E+00  0.00000000E+00
  0.00000000E+00  0.00000000E+00  0.00000000E+00
  0.00000000E+00  0.00000000E+00  0.00000000E+00
  0.00000000E+00  0.00000000E+00  0.00000000E+00
  0.00000000E+00  0.00000000E+00  0.00000000E+00
  0.00000000E+00  0.00000000E+00  0.00000000E+00
  0.00000000E+00  0.00000000E+00  0.00000000E+00
  0.00000000E+00  0.00000000E+00  0.00000000E+00
  0.00000000E+00  0.00000000E+00  0.00000000E+00
  0.00000000E+00  0.00000000E+00  0.00000000E+00
  0.00000000E+00  0.00000000E+00  0.00000000E+00
  0.00000000E+00  0.00000000E+00  0.00000000E+00
  0.00000000E+00  0.00000000E+00  0.00000000E+00
  0.00000000E+00  0.00000000E+00  0.00000000E+00
  0.00000000E+00  0.00000000E+00  0.00000000E+00
  0.00000000E+00  0.00000000E+00  0.00000000E+00
  0.00000000E+00  0.00000000E+00  0.00000000E+00
  0.00000000E+00  0.00000000E+00  0.00000000E+00
  0.00000000E+00  0.00000000E+00  0.00000000E+00
  0.00000000E+00  0.00000000E+00  0.00000000E+00
  0.00000000E+00  0.00000000E+00  0.00000000E+00
  0.00000000E+00  0.00000000E+00  0.00000000E+00
  0.00000000E+00  0.00000000E+00  0.00000000E+00
  0.00000000E+00  0.00000000E+00  0.00000000E+00
  0.00000000E+00  0.00000000E+00  0.00000000E+00
  0.00000000E+00  0.00000000E+00  0.00000000E+00
  0.00000000E+00  0.00000000E+00  0.00000000E+00
  0.00000000E+00  0.00000000E+00  0.00000000E+00
  0.00000000E+00  0.00000000E+00  0.00000000E+00
  0.00000000E+00  0.00000000E+00  0.00000000E+00
  0.00000000E+00  0.00000000E+00  0.00000000E+00
  0.00000000E+00  0.00000000E+00  0.00000000E+00
  0.00000000E+00  0.00000000E+00  0.00000000E+00
  0.00000000E+00  0.00000000E+00  0.00000000E+00
  0.00000000E+00  0.00000000E+00  0.00000000E+00
  0.00000000E+00  0.00000000E+00  0.00000000E+00
  0.00000000E+00  0.00000000E+00  0.00000000E+00
  0.00000000E+00  0.00000000E+00  0.00000000E+00
  0.00000000E+00  0.00000000E+00  0.00000000E+00
  0.00000000E+00  0.00000000E+00  0.00000000E+00
  0.00000000E+00  0.00000000E+00  0.00000000E+00
  0.00000000E+00  0.00000000E+00  0.00000000E+00
  0.00000000E+00  0.00000000E+00  0.00000000E+00
  0.00000000E+00  0.00000000E+00  0.00000000E+00
  0.00000000E+00  0.00000000E+00  0.00000000E+00
  0.00000000E+00  0.00000000E+00  0.00000000E+00
  0.00000000E+00  0.00000000E+00  0.00000000E+00
  0.00000000E+00  0.00000000E+00  0.00000000E+00
  0.00000000E+00  0.00000000E+00  0.00000000E+00
  0.00000000E+00  0.00000000E+00  0.00000000E+00
  0.00000000E+00  0.00000000E+00  0.00000000E+00
  0.00000000E+00  0.00000000E+00  0.00000000E+00
  0.00000000E+00  0.00000000E+00  0.00000000E+00
  0.00000000E+00  0.00000000E+00  0.00000000E+00
  0.00000000E+00  0.00000000E+00  0.00000000E+00
  0.00000000E+00  0.00000000E+00  0.00000000E+00
  0.00000000E+00  0.00000000E+00  0.00000000E+00
  0.00000000E+00  0.00000000E+00  0.00000000E+00
