Generated by VASPKIT code               
   1.00000000000000     
    11.5982000000000003    0.0000000000000000    0.0000000000000000
    -5.7990999999999975   10.0443358381726764    0.0000000000000000
     0.0000000000000000    0.0000000000000000   21.0482000000000014
  Ce              O               Ir            
    21    63     6
Selective dynamics
Direct
  0.0315945852982271  0.0048809255270615  0.4601482021899470   T   T   T
  0.2274189449090075  0.1099189165136263  0.3095099316047086   T   T   T
  0.1111099999999965  0.2222200000000001  0.1599900000000005   F   F   F
  0.5494150213962287  0.1059012632422768  0.3124547624586657   T   T   T
  0.4444400000000002  0.2222200000000001  0.1599900000000005   F   F   F
  0.8971956399577165  0.1131389531279166  0.3186668720150436   T   T   T
  0.7777799999999999  0.2222200000000001  0.1599900000000005   F   F   F
  0.0275238148597063  0.3413740647908509  0.4624318389916133   T   T   T
  0.2280778192020031  0.4452497878143502  0.3083138543399901   T   T   T
  0.1111099999999965  0.5555599999999998  0.1599900000000005   F   F   F
  0.5523570423464108  0.4456560978865569  0.3108072804753327   T   T   T
  0.4444400000000002  0.5555599999999998  0.1599900000000005   F   F   F
  0.8957060222896268  0.4457527848717344  0.3163949051022475   T   T   T
  0.7777799999999999  0.5555599999999998  0.1599900000000005   F   F   F
  0.0049941567161902  0.6566043838535609  0.4638009809639655   T   T   T
  0.2207291479825711  0.7733333858424726  0.3070056397144613   T   T   T
  0.1111099999999965  0.8888900000000035  0.1599900000000005   F   F   F
  0.5562677852385624  0.7782603645647531  0.3069377544910625   T   T   T
  0.4444400000000002  0.8888900000000035  0.1599900000000005   F   F   F
  0.8912052782782658  0.7788203710822938  0.3177905431680687   T   T   T
  0.7777799999999999  0.8888900000000035  0.1599900000000005   F   F   F
  0.0000000000000000  0.0000000000000000  0.1225000000000023   F   F   F
  0.1094801257177713  0.2198554500280293  0.2758576050654436   T   T   T
  0.2307750426011276  0.0593727317803025  0.4255699076397084   T   T   T
  0.1111099999999965  0.2222200000000001  0.0475100000000026   F   F   F
  0.1534233806235843  0.2471756875988439  0.5007747756306375   T   T   T
  0.0104951034468355  0.0037027448151490  0.3527418340758071   T   T   T
  0.2222200000000001  0.1111099999999965  0.1974799999999988   F   F   F
  0.3333299999999966  0.0000000000000000  0.1225000000000023   F   F   F
  0.4606725520169888  0.2326730895936690  0.2766340668775197   T   T   T
  0.4837017830175275  0.0424973024616789  0.4275839583667676   T   T   T
  0.4444400000000002  0.2222200000000001  0.0475100000000026   F   F   F
  0.4465998841958155  0.2946610768645287  0.4982788801689721   T   T   T
  0.3321792609146052  0.9951520302304577  0.3265941128195456   T   T   T
  0.5555599999999998  0.1111099999999965  0.1974799999999988   F   F   F
  0.6666700000000034  0.0000000000000000  0.1225000000000023   F   F   F
  0.7742029067525298  0.2242216631038783  0.2862165434197841   T   T   T
  0.9362053063390025  0.1269617607235146  0.4302987133074799   T   T   T
  0.7777799999999999  0.2222200000000001  0.0475100000000026   F   F   F
  0.6993905068544185  0.0967695151238929  0.5057428232620789   T   T   T
  0.6681673124238405  0.0000517580464317  0.3700671433190473   T   T   T
  0.8888899999999964  0.1111099999999965  0.1974799999999988   F   F   F
  0.0000000000000000  0.3333299999999966  0.1225000000000023   F   F   F
  0.0985334129969768  0.5474045052223017  0.2749325059793099   T   T   T
  0.2433170427509556  0.4773477468880989  0.4301178935569876   T   T   T
  0.1111099999999965  0.5555599999999998  0.0475100000000026   F   F   F
  0.1341208885346243  0.5663356742650476  0.5122205848211254   T   T   T
  0.0148793511440982  0.3368496056613095  0.3540024746153358   T   T   T
  0.2222200000000001  0.4444400000000002  0.1974799999999988   F   F   F
  0.3333299999999966  0.3333299999999966  0.1225000000000023   F   F   F
  0.4584517340743785  0.5566324348475650  0.2749894224788140   T   T   T
  0.5140947130557217  0.4866171845336134  0.4308963739418751   T   T   T
  0.4444400000000002  0.5555599999999998  0.0475100000000026   F   F   F
  0.4414957880959117  0.6078516962371867  0.5119438508660918   T   T   T
  0.3316998710297329  0.3290907417227403  0.3488602270379472   T   T   T
  0.5555599999999998  0.4444400000000002  0.1974799999999988   F   F   F
  0.6666700000000034  0.3333299999999966  0.1225000000000023   F   F   F
  0.7722378294069742  0.5481007558336249  0.2829309757452285   T   T   T
  0.9160336913788587  0.4450744107960422  0.4305582560784590   T   T   T
  0.7777799999999999  0.5555599999999998  0.0475100000000026   F   F   F
  0.7521384929712405  0.5396143302426814  0.4968123171807070   T   T   T
  0.6413933594115774  0.3384067778998772  0.3797577980170236   T   T   T
  0.8888899999999964  0.4444400000000002  0.1974799999999988   F   F   F
  0.0000000000000000  0.6666700000000034  0.1225000000000023   F   F   F
  0.0994661926285339  0.8797477637740387  0.2756285887220987   T   T   T
  0.2229222499121065  0.7443478942293341  0.4216231196986452   T   T   T
  0.1111099999999965  0.8888900000000035  0.0475100000000026   F   F   F
  0.1352856147446009  0.8680650341756172  0.5079861708992417   T   T   T
  0.9994741615897861  0.6626829019537044  0.3550181128604002   T   T   T
  0.2222200000000001  0.7777799999999999  0.1974799999999988   F   F   F
  0.3333299999999966  0.6666700000000034  0.1225000000000023   F   F   F
  0.4666998367924255  0.9008018185779885  0.2744163017630572   T   T   T
  0.4862721260455822  0.7608873294063672  0.4198309592911071   T   T   T
  0.4444400000000002  0.8888900000000035  0.0475100000000026   F   F   F
  0.4072236950345215  0.8592724580990226  0.5035445429436293   T   T   T
  0.3334099107556353  0.6640322528654575  0.3225978504629736   T   T   T
  0.5555599999999998  0.7777799999999999  0.1974799999999988   F   F   F
  0.6666699999999963  0.6666700000000034  0.1225000000000023   F   F   F
  0.7787007649406922  0.8946681723026684  0.2801179301582273   T   T   T
  0.9241426203701587  0.7967798700972736  0.4298740144780903   T   T   T
  0.7777799999999999  0.8888900000000035  0.0475100000000026   F   F   F
  0.6884218366727511  0.8642573053220129  0.4827992661502142   T   T   T
  0.6734864132769967  0.6841567368580930  0.3656607635332353   T   T   T
  0.8888899999999964  0.7777799999999999  0.1974799999999988   F   F   F
  0.3066596005699845  0.9528533278711320  0.4659688050893134   T   T   T
  0.5900242813701656  0.9607541761291799  0.4567016801019694   T   T   T
  0.3308872996489165  0.3723952566346213  0.4685300594171284   T   T   T
  0.6111774144908635  0.3949029595161583  0.4594959102009264   T   T   T
  0.3148807306446004  0.6636341891558923  0.4715978079693898   T   T   T
  0.5970357764675337  0.6863579314612284  0.4530487466106521   T   T   T
 
  0.00000000E+00  0.00000000E+00  0.00000000E+00
  0.00000000E+00  0.00000000E+00  0.00000000E+00
  0.00000000E+00  0.00000000E+00  0.00000000E+00
  0.00000000E+00  0.00000000E+00  0.00000000E+00
  0.00000000E+00  0.00000000E+00  0.00000000E+00
  0.00000000E+00  0.00000000E+00  0.00000000E+00
  0.00000000E+00  0.00000000E+00  0.00000000E+00
  0.00000000E+00  0.00000000E+00  0.00000000E+00
  0.00000000E+00  0.00000000E+00  0.00000000E+00
  0.00000000E+00  0.00000000E+00  0.00000000E+00
  0.00000000E+00  0.00000000E+00  0.00000000E+00
  0.00000000E+00  0.00000000E+00  0.00000000E+00
  0.00000000E+00  0.00000000E+00  0.00000000E+00
  0.00000000E+00  0.00000000E+00  0.00000000E+00
  0.00000000E+00  0.00000000E+00  0.00000000E+00
  0.00000000E+00  0.00000000E+00  0.00000000E+00
  0.00000000E+00  0.00000000E+00  0.00000000E+00
  0.00000000E+00  0.00000000E+00  0.00000000E+00
  0.00000000E+00  0.00000000E+00  0.00000000E+00
  0.00000000E+00  0.00000000E+00  0.00000000E+00
  0.00000000E+00  0.00000000E+00  0.00000000E+00
  0.00000000E+00  0.00000000E+00  0.00000000E+00
  0.00000000E+00  0.00000000E+00  0.00000000E+00
  0.00000000E+00  0.00000000E+00  0.00000000E+00
  0.00000000E+00  0.00000000E+00  0.00000000E+00
  0.00000000E+00  0.00000000E+00  0.00000000E+00
  0.00000000E+00  0.00000000E+00  0.00000000E+00
  0.00000000E+00  0.00000000E+00  0.00000000E+00
  0.00000000E+00  0.00000000E+00  0.00000000E+00
  0.00000000E+00  0.00000000E+00  0.00000000E+00
  0.00000000E+00  0.00000000E+00  0.00000000E+00
  0.00000000E+00  0.00000000E+00  0.00000000E+00
  0.00000000E+00  0.00000000E+00  0.00000000E+00
  0.00000000E+00  0.00000000E+00  0.00000000E+00
  0.00000000E+00  0.00000000E+00  0.00000000E+00
  0.00000000E+00  0.00000000E+00  0.00000000E+00
  0.00000000E+00  0.00000000E+00  0.00000000E+00
  0.00000000E+00  0.00000000E+00  0.00000000E+00
  0.00000000E+00  0.00000000E+00  0.00000000E+00
  0.00000000E+00  0.00000000E+00  0.00000000E+00
  0.00000000E+00  0.00000000E+00  0.00000000E+00
  0.00000000E+00  0.00000000E+00  0.00000000E+00
  0.00000000E+00  0.00000000E+00  0.00000000E+00
  0.00000000E+00  0.00000000E+00  0.00000000E+00
  0.00000000E+00  0.00000000E+00  0.00000000E+00
  0.00000000E+00  0.00000000E+00  0.00000000E+00
  0.00000000E+00  0.00000000E+00  0.00000000E+00
  0.00000000E+00  0.00000000E+00  0.00000000E+00
  0.00000000E+00  0.00000000E+00  0.00000000E+00
  0.00000000E+00  0.00000000E+00  0.00000000E+00
  0.00000000E+00  0.00000000E+00  0.00000000E+00
  0.00000000E+00  0.00000000E+00  0.00000000E+00
  0.00000000E+00  0.00000000E+00  0.00000000E+00
  0.00000000E+00  0.00000000E+00  0.00000000E+00
  0.00000000E+00  0.00000000E+00  0.00000000E+00
  0.00000000E+00  0.00000000E+00  0.00000000E+00
  0.00000000E+00  0.00000000E+00  0.00000000E+00
  0.00000000E+00  0.00000000E+00  0.00000000E+00
  0.00000000E+00  0.00000000E+00  0.00000000E+00
  0.00000000E+00  0.00000000E+00  0.00000000E+00
  0.00000000E+00  0.00000000E+00  0.00000000E+00
  0.00000000E+00  0.00000000E+00  0.00000000E+00
  0.00000000E+00  0.00000000E+00  0.00000000E+00
  0.00000000E+00  0.00000000E+00  0.00000000E+00
  0.00000000E+00  0.00000000E+00  0.00000000E+00
  0.00000000E+00  0.00000000E+00  0.00000000E+00
  0.00000000E+00  0.00000000E+00  0.00000000E+00
  0.00000000E+00  0.00000000E+00  0.00000000E+00
  0.00000000E+00  0.00000000E+00  0.00000000E+00
  0.00000000E+00  0.00000000E+00  0.00000000E+00
  0.00000000E+00  0.00000000E+00  0.00000000E+00
  0.00000000E+00  0.00000000E+00  0.00000000E+00
  0.00000000E+00  0.00000000E+00  0.00000000E+00
  0.00000000E+00  0.00000000E+00  0.00000000E+00
  0.00000000E+00  0.00000000E+00  0.00000000E+00
  0.00000000E+00  0.00000000E+00  0.00000000E+00
  0.00000000E+00  0.00000000E+00  0.00000000E+00
  0.00000000E+00  0.00000000E+00  0.00000000E+00
  0.00000000E+00  0.00000000E+00  0.00000000E+00
  0.00000000E+00  0.00000000E+00  0.00000000E+00
  0.00000000E+00  0.00000000E+00  0.00000000E+00
  0.00000000E+00  0.00000000E+00  0.00000000E+00
  0.00000000E+00  0.00000000E+00  0.00000000E+00
  0.00000000E+00  0.00000000E+00  0.00000000E+00
  0.00000000E+00  0.00000000E+00  0.00000000E+00
  0.00000000E+00  0.00000000E+00  0.00000000E+00
  0.00000000E+00  0.00000000E+00  0.00000000E+00
  0.00000000E+00  0.00000000E+00  0.00000000E+00
  0.00000000E+00  0.00000000E+00  0.00000000E+00
  0.00000000E+00  0.00000000E+00  0.00000000E+00
