Generated by VASPKIT code               
   1.00000000000000     
    11.5982000000000003    0.0000000000000000    0.0000000000000000
    -5.7990999999999975   10.0443358381726764    0.0000000000000000
     0.0000000000000000    0.0000000000000000   21.0482000000000014
  Ce              O               Ir            
    21    63     6
Selective dynamics
Direct
  0.0327574350431797  0.0093367315303538  0.4586572115442258   T   T   T
  0.2275771676770773  0.1102469353721508  0.3085120118822791   T   T   T
  0.1111099999999965  0.2222200000000001  0.1599900000000005   F   F   F
  0.5482526434264337  0.1066890088570674  0.3109617149646994   T   T   T
  0.4444400000000002  0.2222200000000001  0.1599900000000005   F   F   F
  0.8983951081651989  0.1144967036675546  0.3173933772159658   T   T   T
  0.7777799999999999  0.2222200000000001  0.1599900000000005   F   F   F
  0.0293725358220111  0.3452924530759948  0.4630793164219275   T   T   T
  0.2261707399287075  0.4445737041056922  0.3081062614677360   T   T   T
  0.1111099999999965  0.5555599999999998  0.1599900000000005   F   F   F
  0.5509124587503206  0.4442209515336938  0.3098096597606266   T   T   T
  0.4444400000000002  0.5555599999999998  0.1599900000000005   F   F   F
  0.8952238121970219  0.4460502247746428  0.3150530190488933   T   T   T
  0.7777799999999999  0.5555599999999998  0.1599900000000005   F   F   F
  0.0060585143695169  0.6544135290203283  0.4641385642722631   T   T   T
  0.2213274353642657  0.7741131980352219  0.3071135455093474   T   T   T
  0.1111099999999965  0.8888900000000035  0.1599900000000005   F   F   F
  0.5543248774974813  0.7768718823423678  0.3063886208377024   T   T   T
  0.4444400000000002  0.8888900000000035  0.1599900000000005   F   F   F
  0.8923264680020166  0.7792626349686514  0.3168078867342003   T   T   T
  0.7777799999999999  0.8888900000000035  0.1599900000000005   F   F   F
  0.0000000000000000  0.0000000000000000  0.1225000000000023   F   F   F
  0.1078091651726395  0.2190923283280604  0.2752418467047256   T   T   T
  0.2363266382619408  0.0632995384908160  0.4261488478523122   T   T   T
  0.1111099999999965  0.2222200000000001  0.0475100000000026   F   F   F
  0.1575390658965622  0.2484203536865591  0.4993705942645957   T   T   T
  0.0118839504812585  0.0056647283529119  0.3519230548479166   T   T   T
  0.2222200000000001  0.1111099999999965  0.1974799999999988   F   F   F
  0.3333299999999966  0.0000000000000000  0.1225000000000023   F   F   F
  0.4591599369237880  0.2328928190062246  0.2768790552981987   T   T   T
  0.4797568972838546  0.0394917969425270  0.4265965478879460   T   T   T
  0.4444400000000002  0.2222200000000001  0.0475100000000026   F   F   F
  0.4472854865090088  0.2945835564308181  0.4994258216238727   T   T   T
  0.3311890927528189  0.9949940298257079  0.3264129436370272   T   T   T
  0.5555599999999998  0.1111099999999965  0.1974799999999988   F   F   F
  0.6666700000000034  0.0000000000000000  0.1225000000000023   F   F   F
  0.7728478505906479  0.2226432402863483  0.2868750836606876   T   T   T
  0.9331423452302592  0.1270583958640779  0.4319077167248123   T   T   T
  0.7777799999999999  0.2222200000000001  0.0475100000000026   F   F   F
  0.6961938753806065  0.0988737252965360  0.5061966715113512   T   T   T
  0.6634192525694030  0.9972317786806189  0.3725280437245924   T   T   T
  0.8888899999999964  0.1111099999999965  0.1974799999999988   F   F   F
  0.0000000000000000  0.3333299999999966  0.1225000000000023   F   F   F
  0.0985980449704582  0.5473819001256121  0.2748308209698974   T   T   T
  0.2435042512397615  0.4771723450313351  0.4281312987939077   T   T   T
  0.1111099999999965  0.5555599999999998  0.0475100000000026   F   F   F
  0.1263040422251887  0.5615778789676725  0.5094800722434771   T   T   T
  0.0133968760708710  0.3363071692400614  0.3535993856793585   T   T   T
  0.2222200000000001  0.4444400000000002  0.1974799999999988   F   F   F
  0.3333299999999966  0.3333299999999966  0.1225000000000023   F   F   F
  0.4566736057839395  0.5560737166704439  0.2751360878721438   T   T   T
  0.5159005513931804  0.4851528269762443  0.4288866357681885   T   T   T
  0.4444400000000002  0.5555599999999998  0.0475100000000026   F   F   F
  0.4417230717385298  0.6053530931831286  0.5097444492752740   T   T   T
  0.3283500794498704  0.3262938443759534  0.3490510337213911   T   T   T
  0.5555599999999998  0.4444400000000002  0.1974799999999988   F   F   F
  0.6666700000000034  0.3333299999999966  0.1225000000000023   F   F   F
  0.7721461935897996  0.5505589546179195  0.2836869886488737   T   T   T
  0.9123183576994123  0.4429508908252839  0.4307025156634184   T   T   T
  0.7777799999999999  0.5555599999999998  0.0475100000000026   F   F   F
  0.7483339922059592  0.5406228537099260  0.4954193097473211   T   T   T
  0.6405511577754102  0.3370789198371072  0.3795542136848977   T   T   T
  0.8888899999999964  0.4444400000000002  0.1974799999999988   F   F   F
  0.0000000000000000  0.6666700000000034  0.1225000000000023   F   F   F
  0.0991529685842309  0.8802238106416806  0.2755863249867279   T   T   T
  0.2238892278201912  0.7476787002599857  0.4222195111441151   T   T   T
  0.1111099999999965  0.8888900000000035  0.0475100000000026   F   F   F
  0.1415001852696230  0.8704840002326725  0.5110734056601881   T   T   T
  0.9996863178011770  0.6629087279987194  0.3543982502395113   T   T   T
  0.2222200000000001  0.7777799999999999  0.1974799999999988   F   F   F
  0.3333299999999966  0.6666700000000034  0.1225000000000023   F   F   F
  0.4656637850616503  0.9002718922259640  0.2747331895261472   T   T   T
  0.4865780695555459  0.7581427426569626  0.4190409213422132   T   T   T
  0.4444400000000002  0.8888900000000035  0.0475100000000026   F   F   F
  0.4132126705257078  0.8575177211616687  0.5037036495712233   T   T   T
  0.3316173642186935  0.6641060870779009  0.3238417027741673   T   T   T
  0.5555599999999998  0.7777799999999999  0.1974799999999988   F   F   F
  0.6666699999999963  0.6666700000000034  0.1225000000000023   F   F   F
  0.7799027988496512  0.8939521352061472  0.2805813514948364   T   T   T
  0.9271630144155852  0.7999754864265622  0.4328641372459071   T   T   T
  0.7777799999999999  0.8888900000000035  0.0475100000000026   F   F   F
  0.6871654970805335  0.8628372602671575  0.4829500832810462   T   T   T
  0.6712145175399775  0.6880668214541400  0.3672210345485681   T   T   T
  0.8888899999999964  0.7777799999999999  0.1974799999999988   F   F   F
  0.3042106948371567  0.9522067790076187  0.4660640317226750   T   T   T
  0.5898762301580657  0.9619172749148552  0.4574783936024818   T   T   T
  0.3332085054954096  0.3729264291908798  0.4670136711036357   T   T   T
  0.6107844866934774  0.3928755383788598  0.4597339580027426   T   T   T
  0.3169700759104616  0.6636531831035797  0.4697480804207362   T   T   T
  0.5986697694950165  0.6875005259925289  0.4534248130217777   T   T   T
 
  0.00000000E+00  0.00000000E+00  0.00000000E+00
  0.00000000E+00  0.00000000E+00  0.00000000E+00
  0.00000000E+00  0.00000000E+00  0.00000000E+00
  0.00000000E+00  0.00000000E+00  0.00000000E+00
  0.00000000E+00  0.00000000E+00  0.00000000E+00
  0.00000000E+00  0.00000000E+00  0.00000000E+00
  0.00000000E+00  0.00000000E+00  0.00000000E+00
  0.00000000E+00  0.00000000E+00  0.00000000E+00
  0.00000000E+00  0.00000000E+00  0.00000000E+00
  0.00000000E+00  0.00000000E+00  0.00000000E+00
  0.00000000E+00  0.00000000E+00  0.00000000E+00
  0.00000000E+00  0.00000000E+00  0.00000000E+00
  0.00000000E+00  0.00000000E+00  0.00000000E+00
  0.00000000E+00  0.00000000E+00  0.00000000E+00
  0.00000000E+00  0.00000000E+00  0.00000000E+00
  0.00000000E+00  0.00000000E+00  0.00000000E+00
  0.00000000E+00  0.00000000E+00  0.00000000E+00
  0.00000000E+00  0.00000000E+00  0.00000000E+00
  0.00000000E+00  0.00000000E+00  0.00000000E+00
  0.00000000E+00  0.00000000E+00  0.00000000E+00
  0.00000000E+00  0.00000000E+00  0.00000000E+00
  0.00000000E+00  0.00000000E+00  0.00000000E+00
  0.00000000E+00  0.00000000E+00  0.00000000E+00
  0.00000000E+00  0.00000000E+00  0.00000000E+00
  0.00000000E+00  0.00000000E+00  0.00000000E+00
  0.00000000E+00  0.00000000E+00  0.00000000E+00
  0.00000000E+00  0.00000000E+00  0.00000000E+00
  0.00000000E+00  0.00000000E+00  0.00000000E+00
  0.00000000E+00  0.00000000E+00  0.00000000E+00
  0.00000000E+00  0.00000000E+00  0.00000000E+00
  0.00000000E+00  0.00000000E+00  0.00000000E+00
  0.00000000E+00  0.00000000E+00  0.00000000E+00
  0.00000000E+00  0.00000000E+00  0.00000000E+00
  0.00000000E+00  0.00000000E+00  0.00000000E+00
  0.00000000E+00  0.00000000E+00  0.00000000E+00
  0.00000000E+00  0.00000000E+00  0.00000000E+00
  0.00000000E+00  0.00000000E+00  0.00000000E+00
  0.00000000E+00  0.00000000E+00  0.00000000E+00
  0.00000000E+00  0.00000000E+00  0.00000000E+00
  0.00000000E+00  0.00000000E+00  0.00000000E+00
  0.00000000E+00  0.00000000E+00  0.00000000E+00
  0.00000000E+00  0.00000000E+00  0.00000000E+00
  0.00000000E+00  0.00000000E+00  0.00000000E+00
  0.00000000E+00  0.00000000E+00  0.00000000E+00
  0.00000000E+00  0.00000000E+00  0.00000000E+00
  0.00000000E+00  0.00000000E+00  0.00000000E+00
  0.00000000E+00  0.00000000E+00  0.00000000E+00
  0.00000000E+00  0.00000000E+00  0.00000000E+00
  0.00000000E+00  0.00000000E+00  0.00000000E+00
  0.00000000E+00  0.00000000E+00  0.00000000E+00
  0.00000000E+00  0.00000000E+00  0.00000000E+00
  0.00000000E+00  0.00000000E+00  0.00000000E+00
  0.00000000E+00  0.00000000E+00  0.00000000E+00
  0.00000000E+00  0.00000000E+00  0.00000000E+00
  0.00000000E+00  0.00000000E+00  0.00000000E+00
  0.00000000E+00  0.00000000E+00  0.00000000E+00
  0.00000000E+00  0.00000000E+00  0.00000000E+00
  0.00000000E+00  0.00000000E+00  0.00000000E+00
  0.00000000E+00  0.00000000E+00  0.00000000E+00
  0.00000000E+00  0.00000000E+00  0.00000000E+00
  0.00000000E+00  0.00000000E+00  0.00000000E+00
  0.00000000E+00  0.00000000E+00  0.00000000E+00
  0.00000000E+00  0.00000000E+00  0.00000000E+00
  0.00000000E+00  0.00000000E+00  0.00000000E+00
  0.00000000E+00  0.00000000E+00  0.00000000E+00
  0.00000000E+00  0.00000000E+00  0.00000000E+00
  0.00000000E+00  0.00000000E+00  0.00000000E+00
  0.00000000E+00  0.00000000E+00  0.00000000E+00
  0.00000000E+00  0.00000000E+00  0.00000000E+00
  0.00000000E+00  0.00000000E+00  0.00000000E+00
  0.00000000E+00  0.00000000E+00  0.00000000E+00
  0.00000000E+00  0.00000000E+00  0.00000000E+00
  0.00000000E+00  0.00000000E+00  0.00000000E+00
  0.00000000E+00  0.00000000E+00  0.00000000E+00
  0.00000000E+00  0.00000000E+00  0.00000000E+00
  0.00000000E+00  0.00000000E+00  0.00000000E+00
  0.00000000E+00  0.00000000E+00  0.00000000E+00
  0.00000000E+00  0.00000000E+00  0.00000000E+00
  0.00000000E+00  0.00000000E+00  0.00000000E+00
  0.00000000E+00  0.00000000E+00  0.00000000E+00
  0.00000000E+00  0.00000000E+00  0.00000000E+00
  0.00000000E+00  0.00000000E+00  0.00000000E+00
  0.00000000E+00  0.00000000E+00  0.00000000E+00
  0.00000000E+00  0.00000000E+00  0.00000000E+00
  0.00000000E+00  0.00000000E+00  0.00000000E+00
  0.00000000E+00  0.00000000E+00  0.00000000E+00
  0.00000000E+00  0.00000000E+00  0.00000000E+00
  0.00000000E+00  0.00000000E+00  0.00000000E+00
  0.00000000E+00  0.00000000E+00  0.00000000E+00
  0.00000000E+00  0.00000000E+00  0.00000000E+00
