Generated by VASPKIT code
 1.000000
   11.5982000000000003    0.0000000000000000    0.0000000000000000
   -5.7990999999999975   10.0443358381726764    0.0000000000000000
    0.0000000000000000    0.0000000000000000   21.0482000000000014
   Ce   O    Ir
    21    63     6
Selective Dynamics
Direct
    0.0000000000000000    0.0000000000000000    0.4599299999999999    T  T  T    Ce001
    0.2222200000000000    0.1111100000000000    0.3099600000000000    T  T  T    Ce002
    0.1111100000000000    0.2222200000000000    0.1599900000000000    F  F  F    Ce003
    0.5555600000000001    0.1111100000000000    0.3099600000000000    T  T  T    Ce004
    0.4444400000000000    0.2222200000000000    0.1599900000000000    F  F  F    Ce005
    0.8888899999999997    0.1111100000000000    0.3099600000000000    T  T  T    Ce006
    0.7777799999999999    0.2222200000000000    0.1599900000000000    F  F  F    Ce007
    0.0000000000000000    0.3333300000000000    0.4599299999999999    T  T  T    Ce008
    0.2222200000000000    0.4444400000000000    0.3099600000000000    T  T  T    Ce009
    0.1111100000000000    0.5555600000000001    0.1599900000000000    F  F  F    Ce010
    0.5555600000000001    0.4444400000000000    0.3099600000000000    T  T  T    Ce011
    0.4444399999999999    0.5555600000000001    0.1599900000000000    F  F  F    Ce012
    0.8888899999999997    0.4444400000000000    0.3099600000000000    T  T  T    Ce013
    0.7777799999999999    0.5555600000000001    0.1599900000000000    F  F  F    Ce014
    0.0000000000000000    0.6666700000000000    0.4599299999999999    T  T  T    Ce015
    0.2222200000000000    0.7777800000000000    0.3099600000000000    T  T  T    Ce016
    0.1111100000000000    0.8888900000000001    0.1599900000000000    F  F  F    Ce017
    0.5555600000000001    0.7777800000000000    0.3099600000000000    T  T  T    Ce018
    0.4444399999999999    0.8888900000000001    0.1599900000000000    F  F  F    Ce019
    0.8888899999999997    0.7777800000000000    0.3099600000000000    T  T  T    Ce020
    0.7777799999999999    0.8888900000000001    0.1599900000000000    F  F  F    Ce021
    0.0000000000000000    0.0000000000000000    0.1225000000000000    F  F  F     O001
    0.1111100000000000    0.2222200000000000    0.2724700000000000    T  T  T     O002
    0.2222200000000000    0.1111100000000000    0.4224400000000000    T  T  T     O003
    0.1111100000000000    0.2222200000000000    0.0475100000000000    F  F  F     O004
    0.1111100000000000    0.2222200000000000    0.4974200000000000    T  T  T     O005
    0.0000000000000000    0.0000000000000000    0.3474500000000000    T  T  T     O006
    0.2222200000000000    0.1111100000000000    0.1974800000000000    F  F  F     O007
    0.3333300000000000    0.0000000000000000    0.1225000000000000    F  F  F     O008
    0.4444400000000000    0.2222200000000000    0.2724700000000000    T  T  T     O009
    0.5555600000000001    0.1111100000000000    0.4224400000000000    T  T  T     O010
    0.4444400000000000    0.2222200000000000    0.0475100000000000    F  F  F     O011
    0.4444400000000000    0.2222200000000000    0.4974200000000000    T  T  T     O012
    0.3333300000000000    0.0000000000000000    0.3474500000000000    T  T  T     O013
    0.5555600000000001    0.1111100000000000    0.1974800000000000    F  F  F     O014
    0.6666700000000000    0.0000000000000000    0.1225000000000000    F  F  F     O015
    0.7777799999999999    0.2222200000000000    0.2724700000000000    T  T  T     O016
    0.8888899999999997    0.1111100000000000    0.4224400000000000    T  T  T     O017
    0.7777799999999999    0.2222200000000000    0.0475100000000000    F  F  F     O018
    0.7777799999999999    0.2222200000000000    0.4974200000000000    T  T  T     O019
    0.6666700000000000    0.0000000000000000    0.3474500000000000    T  T  T     O020
    0.8888899999999997    0.1111100000000000    0.1974800000000000    F  F  F     O021
    0.0000000000000000    0.3333300000000000    0.1225000000000000    F  F  F     O022
    0.1111100000000000    0.5555600000000001    0.2724700000000000    T  T  T     O023
    0.2222200000000000    0.4444400000000000    0.4224400000000000    T  T  T     O024
    0.1111100000000000    0.5555600000000001    0.0475100000000000    F  F  F     O025
    0.1111100000000000    0.5555600000000001    0.4974200000000000    T  T  T     O026
    0.0000000000000000    0.3333300000000000    0.3474500000000000    T  T  T     O027
    0.2222200000000000    0.4444400000000000    0.1974800000000000    F  F  F     O028
    0.3333300000000000    0.3333300000000000    0.1225000000000000    F  F  F     O029
    0.4444399999999999    0.5555600000000001    0.2724700000000000    T  T  T     O030
    0.5555600000000001    0.4444400000000000    0.4224400000000000    T  T  T     O031
    0.4444399999999999    0.5555600000000001    0.0475100000000000    F  F  F     O032
    0.4444399999999999    0.5555600000000001    0.4974200000000000    T  T  T     O033
    0.3333300000000000    0.3333300000000000    0.3474500000000000    T  T  T     O034
    0.5555600000000001    0.4444400000000000    0.1974800000000000    F  F  F     O035
    0.6666700000000000    0.3333300000000000    0.1225000000000000    F  F  F     O036
    0.7777799999999999    0.5555600000000001    0.2724700000000000    T  T  T     O037
    0.8888899999999997    0.4444400000000000    0.4224400000000000    T  T  T     O038
    0.7777799999999999    0.5555600000000001    0.0475100000000000    F  F  F     O039
    0.7777799999999999    0.5555600000000001    0.4974200000000000    T  T  T     O040
    0.6666700000000000    0.3333300000000000    0.3474500000000000    T  T  T     O041
    0.8888899999999997    0.4444400000000000    0.1974800000000000    F  F  F     O042
    0.0000000000000000    0.6666700000000000    0.1225000000000000    F  F  F     O043
    0.1111100000000000    0.8888900000000001    0.2724700000000000    T  T  T     O044
    0.2222200000000000    0.7777800000000000    0.4224400000000000    T  T  T     O045
    0.1111100000000000    0.8888900000000001    0.0475100000000000    F  F  F     O046
    0.1111100000000000    0.8888900000000001    0.4974200000000000    T  T  T     O047
    0.0000000000000000    0.6666700000000000    0.3474500000000000    T  T  T     O048
    0.2222200000000000    0.7777800000000000    0.1974800000000000    F  F  F     O049
    0.3333300000000000    0.6666700000000000    0.1225000000000000    F  F  F     O050
    0.4444399999999999    0.8888900000000001    0.2724700000000000    T  T  T     O051
    0.5555600000000001    0.7777800000000000    0.4224400000000000    T  T  T     O052
    0.4444399999999999    0.8888900000000001    0.0475100000000000    F  F  F     O053
    0.4444399999999999    0.8888900000000001    0.4974200000000000    T  T  T     O054
    0.3333300000000000    0.6666700000000000    0.3474500000000000    T  T  T     O055
    0.5555600000000001    0.7777800000000000    0.1974800000000000    F  F  F     O056
    0.6666699999999999    0.6666700000000000    0.1225000000000000    F  F  F     O057
    0.7777799999999999    0.8888900000000001    0.2724700000000000    T  T  T     O058
    0.8888899999999997    0.7777800000000000    0.4224400000000000    T  T  T     O059
    0.7777799999999999    0.8888900000000001    0.0475100000000000    F  F  F     O060
    0.7777799999999999    0.8888900000000001    0.4974200000000000    T  T  T     O061
    0.6666699999999999    0.6666700000000000    0.3474500000000000    T  T  T     O062
    0.8888899999999997    0.7777800000000000    0.1974800000000000    F  F  F     O063
    0.3333300000000000    0.0000000000000000    0.4599299999999999    T  T  T    Ir001
    0.6666700000000000    0.0000000000000000    0.4599299999999999    T  T  T    Ir002
    0.3333300000000000    0.3333300000000000    0.4599299999999999    T  T  T    Ir003
    0.6666700000000000    0.3333300000000000    0.4599299999999999    T  T  T    Ir004
    0.3333300000000000    0.6666700000000000    0.4599299999999999    T  T  T    Ir005
    0.6666699999999999    0.6666700000000000    0.4599299999999999    T  T  T    Ir006
