Generated by VASPKIT code               
   1.00000000000000     
    15.4643001556000002    0.0000000000000000    0.0000000000000000
    -7.7321500778000001   13.3924767864999996    0.0000000000000000
     0.0000000000000000    0.0000000000000000   21.0482006073000001
  Ce              O               Ir            
    32   105     6
Selective dynamics
Direct
  0.9994062166188756  0.9924906281095977  0.4592010724926286   T   T   T
  0.1666700000000034  0.0833299999999966  0.3099599999999967   F   F   F
  0.2486433452635342  0.9945443756550086  0.4626859124849852   T   T   T
  0.4166700000000034  0.0833299999999966  0.3099599999999967   F   F   F
  0.4992066855061872  0.9980293743602429  0.4607855957223248   T   T   T
  0.6666700000000034  0.0833299999999966  0.3099599999999967   F   F   F
  0.7495595904779876  0.9983389160509569  0.4613639566813938   T   T   T
  0.9166700000000034  0.0833299999999966  0.3099599999999967   F   F   F
  0.9878701126256330  0.2347880604454376  0.4684644519373242   T   T   T
  0.1666700000000034  0.3333299999999966  0.3099599999999967   F   F   F
  0.2510372936747358  0.2403833474813618  0.4642154229702712   T   T   T
  0.4166700000000034  0.3333299999999966  0.3099599999999967   F   F   F
  0.5005472746256605  0.2414880888464174  0.4609640155623608   T   T   T
  0.6666700000000034  0.3333299999999966  0.3099599999999967   F   F   F
  0.7550397730508659  0.2522908466761067  0.4590666371829404   T   T   T
  0.9166700000000034  0.3333299999999966  0.3099599999999967   F   F   F
  0.0057566533035053  0.5067013355359631  0.4582971402157112   T   T   T
  0.1666700000000034  0.5833299999999966  0.3099599999999967   F   F   F
  0.2672239797629453  0.5096043555129879  0.4665086588269122   T   T   T
  0.4166700000000034  0.5833299999999966  0.3099599999999967   F   F   F
  0.5036703379037734  0.4963498673398550  0.4608336738648758   T   T   T
  0.6666700000000034  0.5833299999999966  0.3099599999999967   F   F   F
  0.7541646797025275  0.4959258432250109  0.4596890699668807   T   T   T
  0.9166700000000034  0.5833299999999966  0.3099599999999967   F   F   F
  0.0038809081869072  0.7489813327922011  0.4600136828767625   T   T   T
  0.1666700000000034  0.8333299999999966  0.3099599999999967   F   F   F
  0.2556044538098038  0.7501806889433940  0.4606998478229155   T   T   T
  0.4166700000000034  0.8333299999999966  0.3099599999999967   F   F   F
  0.5091843278684595  0.7524514557121537  0.4620460836926915   T   T   T
  0.6666700000000034  0.8333299999999966  0.3099599999999967   F   F   F
  0.7507035717377735  0.7507986050627586  0.4620948743606913   T   T   T
  0.9166700000000034  0.8333299999999966  0.3099599999999967   F   F   F
  0.0833299999999966  0.1666700000000034  0.2724699999999984   F   F   F
  0.1770264098176164  0.0812878238948617  0.4211937619552333   T   T   T
  0.0774037747125879  0.1453905328482084  0.4921056149933255   T   T   T
  0.0010066118640247  0.9995114052771882  0.3496547096333529   T   T   T
  0.1666700000000034  0.0833299999999966  0.1974799999999988   F   F   F
  0.2421640984547729  0.9918711094058618  0.5891579876068183   T   T   T
  0.3333299999999966  0.1666700000000034  0.2724699999999984   F   F   F
  0.4122507186158646  0.0842146621392480  0.4198121779013226   T   T   T
  0.3229522500044060  0.1608641246547561  0.5113359779626859   T   T   T
  0.2495660045710201  0.9968432712170027  0.3466665235813383   T   T   T
  0.4166700000000034  0.0833299999999966  0.1974799999999988   F   F   F
  0.5833299999999966  0.1666700000000034  0.2724699999999984   F   F   F
  0.6637956304916915  0.0730809989577819  0.4204270489045313   T   T   T
  0.5933659790072615  0.1655043341660080  0.4834868768710731   T   T   T
  0.4976434301438342  0.9987950427272373  0.3496975271082529   T   T   T
  0.6666700000000034  0.0833299999999966  0.1974799999999988   F   F   F
  0.8333299999999966  0.1666700000000034  0.2724699999999984   F   F   F
  0.9116696112505198  0.0812801528517961  0.4222588103924368   T   T   T
  0.8267115061364522  0.1659184208346647  0.4959498945771271   T   T   T
  0.7520680189175100  0.0010811133789490  0.3459273823918472   T   T   T
  0.9166700000000034  0.0833299999999966  0.1974799999999988   F   F   F
  0.0030715315783219  0.2648851305627548  0.5816849874964478   T   T   T
  0.0833299999999966  0.4166700000000034  0.2724699999999984   F   F   F
  0.1543773225189679  0.3392576897077256  0.4379937199308086   T   T   T
  0.0759586934244933  0.4284282824904067  0.5189913509412710   T   T   T
  0.0058596221265946  0.2492722791848302  0.3505343055113824   T   T   T
  0.1666700000000034  0.3333299999999966  0.1974799999999988   F   F   F
  0.3333299999999966  0.4166700000000034  0.2724699999999984   F   F   F
  0.4218463906624976  0.3191205227082175  0.4229277744836109   T   T   T
  0.3452191156629518  0.4085161328213062  0.4795221180139015   T   T   T
  0.2469406765482846  0.2550757985153712  0.3543097239806826   T   T   T
  0.4166700000000034  0.3333299999999966  0.1974799999999988   F   F   F
  0.4976596571693136  0.2534080305144187  0.5856920970953053   T   T   T
  0.5833299999999966  0.4166700000000034  0.2724699999999984   F   F   F
  0.6649228679791978  0.3378169468904970  0.4190098467805624   T   T   T
  0.5797387479884238  0.4139708421130378  0.5085170160978616   T   T   T
  0.5022041342469330  0.2475930356506599  0.3469735748275360   T   T   T
  0.6666700000000034  0.3333299999999966  0.1974799999999988   F   F   F
  0.8333299999999966  0.4166700000000034  0.2724699999999984   F   F   F
  0.9294787076293897  0.3344786602264087  0.4232925652372366   T   T   T
  0.8439096428156371  0.4186235572975145  0.4846892177264150   T   T   T
  0.7528456610453159  0.2505736458681037  0.3499981655395151   T   T   T
  0.9166700000000034  0.3333299999999966  0.1974799999999988   F   F   F
  0.0833299999999966  0.6666700000000034  0.2724699999999984   F   F   F
  0.1723549676509361  0.5783292007856448  0.4257640655664081   T   T   T
  0.0967201443231513  0.6728791005662562  0.4918947492136573   T   T   T
  0.0022279322267345  0.5028535002456149  0.3493024101679215   T   T   T
  0.1666700000000034  0.5833299999999966  0.1974799999999988   F   F   F
  0.2400130621524586  0.5056620067598957  0.5788496971851946   T   T   T
  0.3333299999999966  0.6666700000000034  0.2724699999999984   F   F   F
  0.4162959671744433  0.5918289140508519  0.4185494702695237   T   T   T
  0.3379538866427809  0.6740288991511725  0.5086062705643697   T   T   T
  0.2487029599307137  0.4929775536987054  0.3510145473133001   T   T   T
  0.4166700000000034  0.5833299999999966  0.1974799999999988   F   F   F
  0.5833299999999966  0.6666700000000034  0.2724699999999984   F   F   F
  0.6765959369964151  0.5777463984587391  0.4245988881915161   T   T   T
  0.5865823564506775  0.6595616501179726  0.4821114834016688   T   T   T
  0.5004016582201872  0.4982237525580194  0.3517097624048978   T   T   T
  0.6666700000000034  0.5833299999999966  0.1974799999999988   F   F   F
  0.7486491423374456  0.5087022672427245  0.5828828351759515   T   T   T
  0.7560923500022767  0.0087813464459981  0.5904294132003097   T   T   T
  0.8333299999999966  0.6666700000000034  0.2724699999999984   F   F   F
  0.9173149419390967  0.5888278390988408  0.4202072493143150   T   T   T
  0.8362808842942925  0.6758997614921550  0.5115786601326993   T   T   T
  0.7532628000458939  0.4994526351367610  0.3472879325556589   T   T   T
  0.9166700000000034  0.5833299999999966  0.1974799999999988   F   F   F
  0.0833299999999966  0.9166700000000034  0.2724699999999984   F   F   F
  0.1675068877564216  0.8337027662966245  0.4209292042420718   T   T   T
  0.0803729753424593  0.9098505448000147  0.4956272540424078   T   T   T
  0.0016065387027254  0.7509525268346772  0.3484903665742016   T   T   T
  0.1666700000000034  0.8333299999999966  0.1974799999999988   F   F   F
  0.3333299999999966  0.9166700000000034  0.2724699999999984   F   F   F
  0.4244583742919982  0.8309899374920920  0.4242076866325519   T   T   T
  0.3336065799729507  0.9106075409260793  0.4919007782611621   T   T   T
  0.2512428745058574  0.7483470465833371  0.3496973183040122   T   T   T
  0.4166700000000034  0.8333299999999966  0.1974799999999988   F   F   F
  0.4969117878435244  0.7506230471849699  0.5843445492338887   T   T   T
  0.5833299999999966  0.9166700000000034  0.2724699999999984   F   F   F
  0.6669922029318621  0.8390284304620879  0.4194616643732050   T   T   T
  0.5851351575436664  0.9247542992181103  0.5089232278444169   T   T   T
  0.5029043573252745  0.7512527119899288  0.3471996188368411   T   T   T
  0.6666700000000034  0.8333299999999966  0.1974799999999988   F   F   F
  0.8333299999999966  0.9166700000000034  0.2724699999999984   F   F   F
  0.9135800478611230  0.8239752795962293  0.4218797187057555   T   T   T
  0.8395021887969401  0.9166738902663270  0.4911565673816238   T   T   T
  0.7479590482129269  0.7485325602596243  0.3501826998391082   T   T   T
  0.9166700000000034  0.8333299999999966  0.1974799999999988   F   F   F
  0.5796559350062196  0.4445953964304125  0.6314429423865825   T   T   T
  0.3067108311616230  0.6705979920318372  0.6329799904731300   T   T   T
  0.8504613158127314  0.7097466833606841  0.6339363396482668   T   T   T
  0.5583889051941523  0.9230923367432955  0.6339877597409261   T   T   T
  0.6610070293428302  0.3264487244541007  0.6647222331165693   T   T   T
  0.4272868504220746  0.5898859667132212  0.6637576932170292   T   T   T
  0.9221643043930302  0.5853072153830361  0.6657449046766322   T   T   T
  0.6750258853861566  0.8368414109880141  0.6634367035651519   T   T   T
  0.6803427238048962  0.3350324587531793  0.5399550299096973   T   T   T
  0.4154070925887446  0.5687210049787023  0.5387390513044054   T   T   T
  0.9415978080717290  0.6009607100212853  0.5417477190908545   T   T   T
  0.6646632207950240  0.8256504772763742  0.5387445630934018   T   T   T
  0.3244358269869522  0.1895314764268271  0.6341924643775542   T   T   T
  0.0649913776141130  0.4390736624890175  0.6540042559865319   T   T   T
  0.4070807543455277  0.0701498672210161  0.6646129554359761   T   T   T
  0.1793575248126556  0.3378104815888475  0.6283846993125352   T   T   T
  0.4292350358986712  0.0882371832787051  0.5394613908237873   T   T   T
  0.1681202669855273  0.3315670677771354  0.5077233712960366   T   T   T
  0.6429593489103487  0.8919260992485096  0.6016371606410099   T   T   T
  0.3834128765805712  0.6322134307054222  0.6002375549369698   T   T   T
  0.8674412477377038  0.6166844193653678  0.6022426011963210   T   T   T
  0.6159809273037586  0.3661594104587213  0.5997356239385981   T   T   T
  0.1102235643319555  0.3905207247347039  0.5974260551062238   T   T   T
  0.3580601654303637  0.1073676046009227  0.6009638633115890   T   T   T
 
  0.00000000E+00  0.00000000E+00  0.00000000E+00
  0.00000000E+00  0.00000000E+00  0.00000000E+00
  0.00000000E+00  0.00000000E+00  0.00000000E+00
  0.00000000E+00  0.00000000E+00  0.00000000E+00
  0.00000000E+00  0.00000000E+00  0.00000000E+00
  0.00000000E+00  0.00000000E+00  0.00000000E+00
  0.00000000E+00  0.00000000E+00  0.00000000E+00
  0.00000000E+00  0.00000000E+00  0.00000000E+00
  0.00000000E+00  0.00000000E+00  0.00000000E+00
  0.00000000E+00  0.00000000E+00  0.00000000E+00
  0.00000000E+00  0.00000000E+00  0.00000000E+00
  0.00000000E+00  0.00000000E+00  0.00000000E+00
  0.00000000E+00  0.00000000E+00  0.00000000E+00
  0.00000000E+00  0.00000000E+00  0.00000000E+00
  0.00000000E+00  0.00000000E+00  0.00000000E+00
  0.00000000E+00  0.00000000E+00  0.00000000E+00
  0.00000000E+00  0.00000000E+00  0.00000000E+00
  0.00000000E+00  0.00000000E+00  0.00000000E+00
  0.00000000E+00  0.00000000E+00  0.00000000E+00
  0.00000000E+00  0.00000000E+00  0.00000000E+00
  0.00000000E+00  0.00000000E+00  0.00000000E+00
  0.00000000E+00  0.00000000E+00  0.00000000E+00
  0.00000000E+00  0.00000000E+00  0.00000000E+00
  0.00000000E+00  0.00000000E+00  0.00000000E+00
  0.00000000E+00  0.00000000E+00  0.00000000E+00
  0.00000000E+00  0.00000000E+00  0.00000000E+00
  0.00000000E+00  0.00000000E+00  0.00000000E+00
  0.00000000E+00  0.00000000E+00  0.00000000E+00
  0.00000000E+00  0.00000000E+00  0.00000000E+00
  0.00000000E+00  0.00000000E+00  0.00000000E+00
  0.00000000E+00  0.00000000E+00  0.00000000E+00
  0.00000000E+00  0.00000000E+00  0.00000000E+00
  0.00000000E+00  0.00000000E+00  0.00000000E+00
  0.00000000E+00  0.00000000E+00  0.00000000E+00
  0.00000000E+00  0.00000000E+00  0.00000000E+00
  0.00000000E+00  0.00000000E+00  0.00000000E+00
  0.00000000E+00  0.00000000E+00  0.00000000E+00
  0.00000000E+00  0.00000000E+00  0.00000000E+00
  0.00000000E+00  0.00000000E+00  0.00000000E+00
  0.00000000E+00  0.00000000E+00  0.00000000E+00
  0.00000000E+00  0.00000000E+00  0.00000000E+00
  0.00000000E+00  0.00000000E+00  0.00000000E+00
  0.00000000E+00  0.00000000E+00  0.00000000E+00
  0.00000000E+00  0.00000000E+00  0.00000000E+00
  0.00000000E+00  0.00000000E+00  0.00000000E+00
  0.00000000E+00  0.00000000E+00  0.00000000E+00
  0.00000000E+00  0.00000000E+00  0.00000000E+00
  0.00000000E+00  0.00000000E+00  0.00000000E+00
  0.00000000E+00  0.00000000E+00  0.00000000E+00
  0.00000000E+00  0.00000000E+00  0.00000000E+00
  0.00000000E+00  0.00000000E+00  0.00000000E+00
  0.00000000E+00  0.00000000E+00  0.00000000E+00
  0.00000000E+00  0.00000000E+00  0.00000000E+00
  0.00000000E+00  0.00000000E+00  0.00000000E+00
  0.00000000E+00  0.00000000E+00  0.00000000E+00
  0.00000000E+00  0.00000000E+00  0.00000000E+00
  0.00000000E+00  0.00000000E+00  0.00000000E+00
  0.00000000E+00  0.00000000E+00  0.00000000E+00
  0.00000000E+00  0.00000000E+00  0.00000000E+00
  0.00000000E+00  0.00000000E+00  0.00000000E+00
  0.00000000E+00  0.00000000E+00  0.00000000E+00
  0.00000000E+00  0.00000000E+00  0.00000000E+00
  0.00000000E+00  0.00000000E+00  0.00000000E+00
  0.00000000E+00  0.00000000E+00  0.00000000E+00
  0.00000000E+00  0.00000000E+00  0.00000000E+00
  0.00000000E+00  0.00000000E+00  0.00000000E+00
  0.00000000E+00  0.00000000E+00  0.00000000E+00
  0.00000000E+00  0.00000000E+00  0.00000000E+00
  0.00000000E+00  0.00000000E+00  0.00000000E+00
  0.00000000E+00  0.00000000E+00  0.00000000E+00
  0.00000000E+00  0.00000000E+00  0.00000000E+00
  0.00000000E+00  0.00000000E+00  0.00000000E+00
  0.00000000E+00  0.00000000E+00  0.00000000E+00
  0.00000000E+00  0.00000000E+00  0.00000000E+00
  0.00000000E+00  0.00000000E+00  0.00000000E+00
  0.00000000E+00  0.00000000E+00  0.00000000E+00
  0.00000000E+00  0.00000000E+00  0.00000000E+00
  0.00000000E+00  0.00000000E+00  0.00000000E+00
  0.00000000E+00  0.00000000E+00  0.00000000E+00
  0.00000000E+00  0.00000000E+00  0.00000000E+00
  0.00000000E+00  0.00000000E+00  0.00000000E+00
  0.00000000E+00  0.00000000E+00  0.00000000E+00
  0.00000000E+00  0.00000000E+00  0.00000000E+00
  0.00000000E+00  0.00000000E+00  0.00000000E+00
  0.00000000E+00  0.00000000E+00  0.00000000E+00
  0.00000000E+00  0.00000000E+00  0.00000000E+00
  0.00000000E+00  0.00000000E+00  0.00000000E+00
  0.00000000E+00  0.00000000E+00  0.00000000E+00
  0.00000000E+00  0.00000000E+00  0.00000000E+00
  0.00000000E+00  0.00000000E+00  0.00000000E+00
  0.00000000E+00  0.00000000E+00  0.00000000E+00
  0.00000000E+00  0.00000000E+00  0.00000000E+00
  0.00000000E+00  0.00000000E+00  0.00000000E+00
  0.00000000E+00  0.00000000E+00  0.00000000E+00
  0.00000000E+00  0.00000000E+00  0.00000000E+00
  0.00000000E+00  0.00000000E+00  0.00000000E+00
  0.00000000E+00  0.00000000E+00  0.00000000E+00
  0.00000000E+00  0.00000000E+00  0.00000000E+00
  0.00000000E+00  0.00000000E+00  0.00000000E+00
  0.00000000E+00  0.00000000E+00  0.00000000E+00
  0.00000000E+00  0.00000000E+00  0.00000000E+00
  0.00000000E+00  0.00000000E+00  0.00000000E+00
  0.00000000E+00  0.00000000E+00  0.00000000E+00
  0.00000000E+00  0.00000000E+00  0.00000000E+00
  0.00000000E+00  0.00000000E+00  0.00000000E+00
  0.00000000E+00  0.00000000E+00  0.00000000E+00
  0.00000000E+00  0.00000000E+00  0.00000000E+00
  0.00000000E+00  0.00000000E+00  0.00000000E+00
  0.00000000E+00  0.00000000E+00  0.00000000E+00
  0.00000000E+00  0.00000000E+00  0.00000000E+00
  0.00000000E+00  0.00000000E+00  0.00000000E+00
  0.00000000E+00  0.00000000E+00  0.00000000E+00
  0.00000000E+00  0.00000000E+00  0.00000000E+00
  0.00000000E+00  0.00000000E+00  0.00000000E+00
  0.00000000E+00  0.00000000E+00  0.00000000E+00
  0.00000000E+00  0.00000000E+00  0.00000000E+00
  0.00000000E+00  0.00000000E+00  0.00000000E+00
  0.00000000E+00  0.00000000E+00  0.00000000E+00
  0.00000000E+00  0.00000000E+00  0.00000000E+00
  0.00000000E+00  0.00000000E+00  0.00000000E+00
  0.00000000E+00  0.00000000E+00  0.00000000E+00
  0.00000000E+00  0.00000000E+00  0.00000000E+00
  0.00000000E+00  0.00000000E+00  0.00000000E+00
  0.00000000E+00  0.00000000E+00  0.00000000E+00
  0.00000000E+00  0.00000000E+00  0.00000000E+00
  0.00000000E+00  0.00000000E+00  0.00000000E+00
  0.00000000E+00  0.00000000E+00  0.00000000E+00
  0.00000000E+00  0.00000000E+00  0.00000000E+00
  0.00000000E+00  0.00000000E+00  0.00000000E+00
  0.00000000E+00  0.00000000E+00  0.00000000E+00
  0.00000000E+00  0.00000000E+00  0.00000000E+00
  0.00000000E+00  0.00000000E+00  0.00000000E+00
  0.00000000E+00  0.00000000E+00  0.00000000E+00
  0.00000000E+00  0.00000000E+00  0.00000000E+00
  0.00000000E+00  0.00000000E+00  0.00000000E+00
  0.00000000E+00  0.00000000E+00  0.00000000E+00
  0.00000000E+00  0.00000000E+00  0.00000000E+00
  0.00000000E+00  0.00000000E+00  0.00000000E+00
  0.00000000E+00  0.00000000E+00  0.00000000E+00
  0.00000000E+00  0.00000000E+00  0.00000000E+00
  0.00000000E+00  0.00000000E+00  0.00000000E+00
  0.00000000E+00  0.00000000E+00  0.00000000E+00
  0.00000000E+00  0.00000000E+00  0.00000000E+00
