Generated by VASPKIT code               
   1.00000000000000     
    15.4643001556000002    0.0000000000000000    0.0000000000000000
    -7.7321500778000001   13.3924767864999996    0.0000000000000000
     0.0000000000000000    0.0000000000000000   21.0482006073000001
  Ce              O               Ir            
    32   105     6
Selective dynamics
Direct
  0.9998605350291239  0.9981540972421153  0.4602602331272407   T   T   T
  0.1666700000000034  0.0833299999999966  0.3099599999999967   F   F   F
  0.2468222654969323  0.9963171917255427  0.4629157136055639   T   T   T
  0.4166700000000034  0.0833299999999966  0.3099599999999967   F   F   F
  0.4974138722806587  0.0009937838423406  0.4617718484207821   T   T   T
  0.6666700000000034  0.0833299999999966  0.3099599999999967   F   F   F
  0.7518689184186422  0.0018797128590704  0.4617534218244432   T   T   T
  0.9166700000000034  0.0833299999999966  0.3099599999999967   F   F   F
  0.9872359703932212  0.2388955925595040  0.4675505602367585   T   T   T
  0.1666700000000034  0.3333299999999966  0.3099599999999967   F   F   F
  0.2492831463235113  0.2501597693269992  0.4669314401993307   T   T   T
  0.4166700000000034  0.3333299999999966  0.3099599999999967   F   F   F
  0.5015181591173088  0.2466667236697763  0.4614754685028773   T   T   T
  0.6666700000000034  0.3333299999999966  0.3099599999999967   F   F   F
  0.7496411004479340  0.2497537084705914  0.4599585744331359   T   T   T
  0.9166700000000034  0.3333299999999966  0.3099599999999967   F   F   F
  0.9956407738734552  0.5055590499371245  0.4601872194923748   T   T   T
  0.1666700000000034  0.5833299999999966  0.3099599999999967   F   F   F
  0.2659655196246832  0.5127766532051072  0.4685808159965858   T   T   T
  0.4166700000000034  0.5833299999999966  0.3099599999999967   F   F   F
  0.5042589652342579  0.5019038379763179  0.4626800405302722   T   T   T
  0.6666700000000034  0.5833299999999966  0.3099599999999967   F   F   F
  0.7492607384310928  0.4961926201757001  0.4626307354541719   T   T   T
  0.9166700000000034  0.5833299999999966  0.3099599999999967   F   F   F
  0.0031118067947653  0.7536696320984675  0.4609883614890348   T   T   T
  0.1666700000000034  0.8333299999999966  0.3099599999999967   F   F   F
  0.2485464990352365  0.7520077113199993  0.4645032396861057   T   T   T
  0.4166700000000034  0.8333299999999966  0.3099599999999967   F   F   F
  0.5058232098799059  0.7537200020433329  0.4614850768016113   T   T   T
  0.6666700000000034  0.8333299999999966  0.3099599999999967   F   F   F
  0.7497312317453102  0.7546616073764122  0.4623164823379692   T   T   T
  0.9166700000000034  0.8333299999999966  0.3099599999999967   F   F   F
  0.0833299999999966  0.1666700000000034  0.2724699999999984   F   F   F
  0.1725098172287565  0.0849337241250831  0.4230887946449270   T   T   T
  0.0776448226676405  0.1548476330568956  0.4930224814547096   T   T   T
  0.0006569921795364  0.0002628918375780  0.3496816873054850   T   T   T
  0.1666700000000034  0.0833299999999966  0.1974799999999988   F   F   F
  0.2523132366436082  0.0248972130931822  0.5854790959772180   T   T   T
  0.3333299999999966  0.1666700000000034  0.2724699999999984   F   F   F
  0.4139559167513971  0.0827414675317016  0.4243661200194770   T   T   T
  0.3333328001610810  0.1678754269569523  0.4998452519246093   T   T   T
  0.2493638493928531  0.9985459139916103  0.3483818504585536   T   T   T
  0.4166700000000034  0.0833299999999966  0.1974799999999988   F   F   F
  0.5833299999999966  0.1666700000000034  0.2724699999999984   F   F   F
  0.6657247413125384  0.0806243131713278  0.4221293359715519   T   T   T
  0.5860927870045554  0.1652245165222213  0.4941931184093606   T   T   T
  0.4980043913823103  0.9993038094455163  0.3501071976570191   T   T   T
  0.6666700000000034  0.0833299999999966  0.1974799999999988   F   F   F
  0.8333299999999966  0.1666700000000034  0.2724699999999984   F   F   F
  0.9124423359332489  0.0827323697722443  0.4232268988712111   T   T   T
  0.8288167562278230  0.1667224802561210  0.4984472964490796   T   T   T
  0.7506962135220979  0.0007953612629032  0.3476091102748268   T   T   T
  0.9166700000000034  0.0833299999999966  0.1974799999999988   F   F   F
  0.0157159908974909  0.2715808522037666  0.6006833983967060   T   T   T
  0.0833299999999966  0.4166700000000034  0.2724699999999984   F   F   F
  0.1604339601811905  0.3438751727693440  0.4368648495970266   T   T   T
  0.0090701260922094  0.3865875882774449  0.5242335457548195   T   T   T
  0.0047961869558256  0.2506793108195985  0.3518022695153815   T   T   T
  0.1666700000000034  0.3333299999999966  0.1974799999999988   F   F   F
  0.3333299999999966  0.4166700000000034  0.2724699999999984   F   F   F
  0.4186729359151027  0.3288632080086499  0.4227627349379149   T   T   T
  0.3471213647518872  0.4228271468536535  0.4921689579655805   T   T   T
  0.2457125602937569  0.2555764343468275  0.3543008739132171   T   T   T
  0.4166700000000034  0.3333299999999966  0.1974799999999988   F   F   F
  0.4406628203832616  0.3372438928387101  0.6122419431779887   T   T   T
  0.5833299999999966  0.4166700000000034  0.2724699999999984   F   F   F
  0.6657197021972284  0.3344791199882725  0.4234380508264107   T   T   T
  0.5789006311731199  0.4076757612463746  0.5053206433208053   T   T   T
  0.5009251374174927  0.2484798348014151  0.3485551209020422   T   T   T
  0.6666700000000034  0.3333299999999966  0.1974799999999988   F   F   F
  0.8333299999999966  0.4166700000000034  0.2724699999999984   F   F   F
  0.9176224948217813  0.3334795011980090  0.4211437845392652   T   T   T
  0.8327566412443109  0.4181726234854458  0.4962391979489118   T   T   T
  0.7497625917629028  0.2501895535890579  0.3497225484277476   T   T   T
  0.9166700000000034  0.3333299999999966  0.1974799999999988   F   F   F
  0.0833299999999966  0.6666700000000034  0.2724699999999984   F   F   F
  0.1685526405444123  0.5764012106412284  0.4307947997716111   T   T   T
  0.0784902532698315  0.6670238887266250  0.4938165445767199   T   T   T
  0.0021023334603811  0.5035285152902501  0.3504502213062202   T   T   T
  0.1666700000000034  0.5833299999999966  0.1974799999999988   F   F   F
  0.1553578189153647  0.5233939679556618  0.5694055442483036   T   T   T
  0.3333299999999966  0.6666700000000034  0.2724699999999984   F   F   F
  0.4162951205750245  0.5907398200556919  0.4248708224426372   T   T   T
  0.3419878110642883  0.6765939896882013  0.5108530624261289   T   T   T
  0.2505549665128715  0.4966488137365074  0.3516443116216675   T   T   T
  0.4166700000000034  0.5833299999999966  0.1974799999999988   F   F   F
  0.5833299999999966  0.6666700000000034  0.2724699999999984   F   F   F
  0.6696506909952715  0.5793337651402608  0.4258636277391409   T   T   T
  0.5864809413117762  0.6714127377852542  0.4901180159938748   T   T   T
  0.4999399248050676  0.5015499455188701  0.3503563598605725   T   T   T
  0.6666700000000034  0.5833299999999966  0.1974799999999988   F   F   F
  0.7424378424842631  0.5338048618093686  0.5857024850254408   T   T   T
  0.7304583375542520  0.9998324242177383  0.5841897350257954   T   T   T
  0.8333299999999966  0.6666700000000034  0.2724699999999984   F   F   F
  0.9120681227073082  0.5849151214362797  0.4231502148414481   T   T   T
  0.8365150761581844  0.6701983735571769  0.5033594090232237   T   T   T
  0.7495954414843978  0.4987743930395419  0.3485559858773203   T   T   T
  0.9166700000000034  0.5833299999999966  0.1974799999999988   F   F   F
  0.0833299999999966  0.9166700000000034  0.2724699999999984   F   F   F
  0.1676959726582151  0.8340230141359773  0.4234885529405724   T   T   T
  0.0807280205417401  0.9145247200770160  0.4964338849070473   T   T   T
  0.0014278477182584  0.7509521977626656  0.3492308897978914   T   T   T
  0.1666700000000034  0.8333299999999966  0.1974799999999988   F   F   F
  0.3333299999999966  0.9166700000000034  0.2724699999999984   F   F   F
  0.4170091526152592  0.8312454850737275  0.4244309652677151   T   T   T
  0.3323001931679931  0.9147720180622276  0.4971968203015770   T   T   T
  0.2480314012299282  0.7466068539343463  0.3511209740196489   T   T   T
  0.4166700000000034  0.8333299999999966  0.1974799999999988   F   F   F
  0.4068947376553860  0.7507724836378535  0.6375164137740572   T   T   T
  0.5833299999999966  0.9166700000000034  0.2724699999999984   F   F   F
  0.6676568090867260  0.8392045913786258  0.4230846546691919   T   T   T
  0.5834018689323951  0.9196970682899865  0.5012881736223798   T   T   T
  0.5013658715666804  0.7506120668894011  0.3486941119927789   T   T   T
  0.6666700000000034  0.8333299999999966  0.1974799999999988   F   F   F
  0.8333299999999966  0.9166700000000034  0.2724699999999984   F   F   F
  0.9142400128421355  0.8298013738697096  0.4222290977796050   T   T   T
  0.8346605952065355  0.9171666920874813  0.4961354691418729   T   T   T
  0.7474588978405964  0.7488155805019998  0.3501100108171720   T   T   T
  0.9166700000000034  0.8333299999999966  0.1974799999999988   F   F   F
  0.5667397789516536  0.5290589481488450  0.5787160125011989   T   T   T
  0.2326717314036358  0.7103912753498399  0.5839148444607788   T   T   T
  0.7655405814423804  0.7382666317858183  0.5865189646040536   T   T   T
  0.5328328663046895  0.9785401992531215  0.5991457685762323   T   T   T
  0.5936207202608751  0.4611335723832753  0.6915080391956920   T   T   T
  0.2350837100411514  0.6026883368033723  0.6862603847288498   T   T   T
  0.8057045795559682  0.6566517983769014  0.6852196122190145   T   T   T
  0.6129789531558306  0.9111983970750118  0.6865073579317286   T   T   T
  0.6218807383991262  0.3452251636578822  0.6067894392741225   T   T   T
  0.3310460542727276  0.5573177738424365  0.5957469597129545   T   T   T
  0.9539261000032762  0.7168788045363707  0.5995646704073396   T   T   T
  0.5728885669719358  0.7946930749487271  0.5829009068859549   T   T   T
  0.2523653766674314  0.2074392689578460  0.5888581466928348   T   T   T
  0.9728539995649036  0.4183589604340588  0.6514411865521198   T   T   T
  0.3317665592352379  0.1519542219227026  0.6852587251409474   T   T   T
  0.1527463130069596  0.4224740560067152  0.6652374423013617   T   T   T
  0.4523747253413861  0.1769458991940705  0.5841212778830400   T   T   T
  0.1593655374097981  0.3443973213065828  0.5065116370502968   T   T   T
  0.6023698467969674  0.9173554349399600  0.6036907053943787   T   T   T
  0.2943393576694232  0.6465821032285668  0.6128338376138339   T   T   T
  0.8244057358894324  0.6671929150317496  0.6019737706636958   T   T   T
  0.5720411217676736  0.4247640735402046  0.6113219130657536   T   T   T
  0.0590785640863864  0.4018804362628621  0.6093963053604058   T   T   T
  0.3308761525755071  0.1554592389577961  0.6016454631413777   T   T   T
 
  0.00000000E+00  0.00000000E+00  0.00000000E+00
  0.00000000E+00  0.00000000E+00  0.00000000E+00
  0.00000000E+00  0.00000000E+00  0.00000000E+00
  0.00000000E+00  0.00000000E+00  0.00000000E+00
  0.00000000E+00  0.00000000E+00  0.00000000E+00
  0.00000000E+00  0.00000000E+00  0.00000000E+00
  0.00000000E+00  0.00000000E+00  0.00000000E+00
  0.00000000E+00  0.00000000E+00  0.00000000E+00
  0.00000000E+00  0.00000000E+00  0.00000000E+00
  0.00000000E+00  0.00000000E+00  0.00000000E+00
  0.00000000E+00  0.00000000E+00  0.00000000E+00
  0.00000000E+00  0.00000000E+00  0.00000000E+00
  0.00000000E+00  0.00000000E+00  0.00000000E+00
  0.00000000E+00  0.00000000E+00  0.00000000E+00
  0.00000000E+00  0.00000000E+00  0.00000000E+00
  0.00000000E+00  0.00000000E+00  0.00000000E+00
  0.00000000E+00  0.00000000E+00  0.00000000E+00
  0.00000000E+00  0.00000000E+00  0.00000000E+00
  0.00000000E+00  0.00000000E+00  0.00000000E+00
  0.00000000E+00  0.00000000E+00  0.00000000E+00
  0.00000000E+00  0.00000000E+00  0.00000000E+00
  0.00000000E+00  0.00000000E+00  0.00000000E+00
  0.00000000E+00  0.00000000E+00  0.00000000E+00
  0.00000000E+00  0.00000000E+00  0.00000000E+00
  0.00000000E+00  0.00000000E+00  0.00000000E+00
  0.00000000E+00  0.00000000E+00  0.00000000E+00
  0.00000000E+00  0.00000000E+00  0.00000000E+00
  0.00000000E+00  0.00000000E+00  0.00000000E+00
  0.00000000E+00  0.00000000E+00  0.00000000E+00
  0.00000000E+00  0.00000000E+00  0.00000000E+00
  0.00000000E+00  0.00000000E+00  0.00000000E+00
  0.00000000E+00  0.00000000E+00  0.00000000E+00
  0.00000000E+00  0.00000000E+00  0.00000000E+00
  0.00000000E+00  0.00000000E+00  0.00000000E+00
  0.00000000E+00  0.00000000E+00  0.00000000E+00
  0.00000000E+00  0.00000000E+00  0.00000000E+00
  0.00000000E+00  0.00000000E+00  0.00000000E+00
  0.00000000E+00  0.00000000E+00  0.00000000E+00
  0.00000000E+00  0.00000000E+00  0.00000000E+00
  0.00000000E+00  0.00000000E+00  0.00000000E+00
  0.00000000E+00  0.00000000E+00  0.00000000E+00
  0.00000000E+00  0.00000000E+00  0.00000000E+00
  0.00000000E+00  0.00000000E+00  0.00000000E+00
  0.00000000E+00  0.00000000E+00  0.00000000E+00
  0.00000000E+00  0.00000000E+00  0.00000000E+00
  0.00000000E+00  0.00000000E+00  0.00000000E+00
  0.00000000E+00  0.00000000E+00  0.00000000E+00
  0.00000000E+00  0.00000000E+00  0.00000000E+00
  0.00000000E+00  0.00000000E+00  0.00000000E+00
  0.00000000E+00  0.00000000E+00  0.00000000E+00
  0.00000000E+00  0.00000000E+00  0.00000000E+00
  0.00000000E+00  0.00000000E+00  0.00000000E+00
  0.00000000E+00  0.00000000E+00  0.00000000E+00
  0.00000000E+00  0.00000000E+00  0.00000000E+00
  0.00000000E+00  0.00000000E+00  0.00000000E+00
  0.00000000E+00  0.00000000E+00  0.00000000E+00
  0.00000000E+00  0.00000000E+00  0.00000000E+00
  0.00000000E+00  0.00000000E+00  0.00000000E+00
  0.00000000E+00  0.00000000E+00  0.00000000E+00
  0.00000000E+00  0.00000000E+00  0.00000000E+00
  0.00000000E+00  0.00000000E+00  0.00000000E+00
  0.00000000E+00  0.00000000E+00  0.00000000E+00
  0.00000000E+00  0.00000000E+00  0.00000000E+00
  0.00000000E+00  0.00000000E+00  0.00000000E+00
  0.00000000E+00  0.00000000E+00  0.00000000E+00
  0.00000000E+00  0.00000000E+00  0.00000000E+00
  0.00000000E+00  0.00000000E+00  0.00000000E+00
  0.00000000E+00  0.00000000E+00  0.00000000E+00
  0.00000000E+00  0.00000000E+00  0.00000000E+00
  0.00000000E+00  0.00000000E+00  0.00000000E+00
  0.00000000E+00  0.00000000E+00  0.00000000E+00
  0.00000000E+00  0.00000000E+00  0.00000000E+00
  0.00000000E+00  0.00000000E+00  0.00000000E+00
  0.00000000E+00  0.00000000E+00  0.00000000E+00
  0.00000000E+00  0.00000000E+00  0.00000000E+00
  0.00000000E+00  0.00000000E+00  0.00000000E+00
  0.00000000E+00  0.00000000E+00  0.00000000E+00
  0.00000000E+00  0.00000000E+00  0.00000000E+00
  0.00000000E+00  0.00000000E+00  0.00000000E+00
  0.00000000E+00  0.00000000E+00  0.00000000E+00
  0.00000000E+00  0.00000000E+00  0.00000000E+00
  0.00000000E+00  0.00000000E+00  0.00000000E+00
  0.00000000E+00  0.00000000E+00  0.00000000E+00
  0.00000000E+00  0.00000000E+00  0.00000000E+00
  0.00000000E+00  0.00000000E+00  0.00000000E+00
  0.00000000E+00  0.00000000E+00  0.00000000E+00
  0.00000000E+00  0.00000000E+00  0.00000000E+00
  0.00000000E+00  0.00000000E+00  0.00000000E+00
  0.00000000E+00  0.00000000E+00  0.00000000E+00
  0.00000000E+00  0.00000000E+00  0.00000000E+00
  0.00000000E+00  0.00000000E+00  0.00000000E+00
  0.00000000E+00  0.00000000E+00  0.00000000E+00
  0.00000000E+00  0.00000000E+00  0.00000000E+00
  0.00000000E+00  0.00000000E+00  0.00000000E+00
  0.00000000E+00  0.00000000E+00  0.00000000E+00
  0.00000000E+00  0.00000000E+00  0.00000000E+00
  0.00000000E+00  0.00000000E+00  0.00000000E+00
  0.00000000E+00  0.00000000E+00  0.00000000E+00
  0.00000000E+00  0.00000000E+00  0.00000000E+00
  0.00000000E+00  0.00000000E+00  0.00000000E+00
  0.00000000E+00  0.00000000E+00  0.00000000E+00
  0.00000000E+00  0.00000000E+00  0.00000000E+00
  0.00000000E+00  0.00000000E+00  0.00000000E+00
  0.00000000E+00  0.00000000E+00  0.00000000E+00
  0.00000000E+00  0.00000000E+00  0.00000000E+00
  0.00000000E+00  0.00000000E+00  0.00000000E+00
  0.00000000E+00  0.00000000E+00  0.00000000E+00
  0.00000000E+00  0.00000000E+00  0.00000000E+00
  0.00000000E+00  0.00000000E+00  0.00000000E+00
  0.00000000E+00  0.00000000E+00  0.00000000E+00
  0.00000000E+00  0.00000000E+00  0.00000000E+00
  0.00000000E+00  0.00000000E+00  0.00000000E+00
  0.00000000E+00  0.00000000E+00  0.00000000E+00
  0.00000000E+00  0.00000000E+00  0.00000000E+00
  0.00000000E+00  0.00000000E+00  0.00000000E+00
  0.00000000E+00  0.00000000E+00  0.00000000E+00
  0.00000000E+00  0.00000000E+00  0.00000000E+00
  0.00000000E+00  0.00000000E+00  0.00000000E+00
  0.00000000E+00  0.00000000E+00  0.00000000E+00
  0.00000000E+00  0.00000000E+00  0.00000000E+00
  0.00000000E+00  0.00000000E+00  0.00000000E+00
  0.00000000E+00  0.00000000E+00  0.00000000E+00
  0.00000000E+00  0.00000000E+00  0.00000000E+00
  0.00000000E+00  0.00000000E+00  0.00000000E+00
  0.00000000E+00  0.00000000E+00  0.00000000E+00
  0.00000000E+00  0.00000000E+00  0.00000000E+00
  0.00000000E+00  0.00000000E+00  0.00000000E+00
  0.00000000E+00  0.00000000E+00  0.00000000E+00
  0.00000000E+00  0.00000000E+00  0.00000000E+00
  0.00000000E+00  0.00000000E+00  0.00000000E+00
  0.00000000E+00  0.00000000E+00  0.00000000E+00
  0.00000000E+00  0.00000000E+00  0.00000000E+00
  0.00000000E+00  0.00000000E+00  0.00000000E+00
  0.00000000E+00  0.00000000E+00  0.00000000E+00
  0.00000000E+00  0.00000000E+00  0.00000000E+00
  0.00000000E+00  0.00000000E+00  0.00000000E+00
  0.00000000E+00  0.00000000E+00  0.00000000E+00
  0.00000000E+00  0.00000000E+00  0.00000000E+00
  0.00000000E+00  0.00000000E+00  0.00000000E+00
  0.00000000E+00  0.00000000E+00  0.00000000E+00
  0.00000000E+00  0.00000000E+00  0.00000000E+00
  0.00000000E+00  0.00000000E+00  0.00000000E+00
  0.00000000E+00  0.00000000E+00  0.00000000E+00
