Generated by VASPKIT code               
   1.00000000000000     
    15.4643001556000002    0.0000000000000000    0.0000000000000000
    -7.7321500778000001   13.3924767864999996    0.0000000000000000
     0.0000000000000000    0.0000000000000000   21.0482006073000001
  Ce              O               Ir            
    32   105     6
Selective dynamics
Direct
  0.9998889510656657  0.9980758591494012  0.4602658310008760   T   T   T
  0.1666700000000034  0.0833299999999966  0.3099599999999967   F   F   F
  0.2469071498177494  0.9964073002373619  0.4628944108334745   T   T   T
  0.4166700000000034  0.0833299999999966  0.3099599999999967   F   F   F
  0.4974604272715578  0.0010430098622590  0.4618185621551611   T   T   T
  0.6666700000000034  0.0833299999999966  0.3099599999999967   F   F   F
  0.7518707585939715  0.0018291259102560  0.4617454425429484   T   T   T
  0.9166700000000034  0.0833299999999966  0.3099599999999967   F   F   F
  0.9872142963364765  0.2388565696654511  0.4674754140315154   T   T   T
  0.1666700000000034  0.3333299999999966  0.3099599999999967   F   F   F
  0.2493255441474433  0.2501581971142518  0.4669457351952052   T   T   T
  0.4166700000000034  0.3333299999999966  0.3099599999999967   F   F   F
  0.5014857793146648  0.2466684372025533  0.4614881321364318   T   T   T
  0.6666700000000034  0.3333299999999966  0.3099599999999967   F   F   F
  0.7495860657195947  0.2497342492522169  0.4599719296505859   T   T   T
  0.9166700000000034  0.3333299999999966  0.3099599999999967   F   F   F
  0.9955303907924870  0.5055878961567302  0.4601540726430037   T   T   T
  0.1666700000000034  0.5833299999999966  0.3099599999999967   F   F   F
  0.2659037342279123  0.5127477080077094  0.4685142680581635   T   T   T
  0.4166700000000034  0.5833299999999966  0.3099599999999967   F   F   F
  0.5040838861638712  0.5019057129961985  0.4625510257004452   T   T   T
  0.6666700000000034  0.5833299999999966  0.3099599999999967   F   F   F
  0.7492407589926272  0.4962168977321778  0.4626712102756605   T   T   T
  0.9166700000000034  0.5833299999999966  0.3099599999999967   F   F   F
  0.0030894581191975  0.7536603488955884  0.4610203402683495   T   T   T
  0.1666700000000034  0.8333299999999966  0.3099599999999967   F   F   F
  0.2483845520927868  0.7519140513938688  0.4644682946614394   T   T   T
  0.4166700000000034  0.8333299999999966  0.3099599999999967   F   F   F
  0.5057122571390191  0.7535887803758565  0.4614610049201364   T   T   T
  0.6666700000000034  0.8333299999999966  0.3099599999999967   F   F   F
  0.7496767330459383  0.7546911060895112  0.4622267735948817   T   T   T
  0.9166700000000034  0.8333299999999966  0.3099599999999967   F   F   F
  0.0833299999999966  0.1666700000000034  0.2724699999999984   F   F   F
  0.1726782738986593  0.0850536825594948  0.4230947449781116   T   T   T
  0.0775550283348670  0.1548384440845830  0.4929601508216717   T   T   T
  0.0006849012041900  0.0002153786042983  0.3497140962492046   T   T   T
  0.1666700000000034  0.0833299999999966  0.1974799999999988   F   F   F
  0.2526146623609342  0.0250643475082727  0.5854813806659184   T   T   T
  0.3333299999999966  0.1666700000000034  0.2724699999999984   F   F   F
  0.4139567166324662  0.0827529137013125  0.4243813323388282   T   T   T
  0.3335522448668133  0.1680595267479897  0.4999192327776357   T   T   T
  0.2494664516844773  0.9986298104123208  0.3483719686570950   T   T   T
  0.4166700000000034  0.0833299999999966  0.1974799999999988   F   F   F
  0.5833299999999966  0.1666700000000034  0.2724699999999984   F   F   F
  0.6656606953157086  0.0805626600643415  0.4221452582501728   T   T   T
  0.5861082368029868  0.1652682118516398  0.4942503671460562   T   T   T
  0.4979466083882986  0.9992614650949201  0.3501308693727080   T   T   T
  0.6666700000000034  0.0833299999999966  0.1974799999999988   F   F   F
  0.8333299999999966  0.1666700000000034  0.2724699999999984   F   F   F
  0.9123746348912847  0.0827330206359218  0.4231676688628643   T   T   T
  0.8288894813769038  0.1667565929044244  0.4984404740965934   T   T   T
  0.7507208959230003  0.0009181095657565  0.3475789872228476   T   T   T
  0.9166700000000034  0.0833299999999966  0.1974799999999988   F   F   F
  0.0157957205245797  0.2717036433650459  0.6006943285596081   T   T   T
  0.0833299999999966  0.4166700000000034  0.2724699999999984   F   F   F
  0.1604224894887898  0.3438155778950959  0.4368110343465897   T   T   T
  0.0092098583166680  0.3866516873715325  0.5241315825575243   T   T   T
  0.0047270832682044  0.2506827023617028  0.3518350671237529   T   T   T
  0.1666700000000034  0.3333299999999966  0.1974799999999988   F   F   F
  0.3333299999999966  0.4166700000000034  0.2724699999999984   F   F   F
  0.4185409114113502  0.3288243774057580  0.4226973762962106   T   T   T
  0.3470273057523145  0.4229460380829699  0.4919987137161423   T   T   T
  0.2456913582674933  0.2555163370281320  0.3542291279962825   T   T   T
  0.4166700000000034  0.3333299999999966  0.1974799999999988   F   F   F
  0.4404489660074394  0.3375106421692172  0.6123427135174930   T   T   T
  0.5833299999999966  0.4166700000000034  0.2724699999999984   F   F   F
  0.6657661294329474  0.3345399586056498  0.4235157440460799   T   T   T
  0.5786379271190358  0.4076373272285845  0.5052906773238014   T   T   T
  0.5009670860834048  0.2484757346025586  0.3485594459148560   T   T   T
  0.6666700000000034  0.3333299999999966  0.1974799999999988   F   F   F
  0.8333299999999966  0.4166700000000034  0.2724699999999984   F   F   F
  0.9176306568761807  0.3335572845221913  0.4211346195370571   T   T   T
  0.8327377071566445  0.4181797219938568  0.4962868048777936   T   T   T
  0.7496271785475057  0.2500871341542801  0.3497827847768650   T   T   T
  0.9166700000000034  0.3333299999999966  0.1974799999999988   F   F   F
  0.0833299999999966  0.6666700000000034  0.2724699999999984   F   F   F
  0.1685141812884068  0.5764381275525962  0.4307183772797128   T   T   T
  0.0784720256318200  0.6669712832694199  0.4937200671428189   T   T   T
  0.0019648303727699  0.5034695724314955  0.3504665809316010   T   T   T
  0.1666700000000034  0.5833299999999966  0.1974799999999988   F   F   F
  0.1552093580159297  0.5234235726498168  0.5694892953885882   T   T   T
  0.3333299999999966  0.6666700000000034  0.2724699999999984   F   F   F
  0.4161958643605370  0.5907955952411743  0.4247701550662004   T   T   T
  0.3417104884989096  0.6765015532777651  0.5108524984097057   T   T   T
  0.2504874435792678  0.4966378028365357  0.3516003147840651   T   T   T
  0.4166700000000034  0.5833299999999966  0.1974799999999988   F   F   F
  0.5833299999999966  0.6666700000000034  0.2724699999999984   F   F   F
  0.6695619204645545  0.5792414167175246  0.4257896041597816   T   T   T
  0.5862742062541574  0.6714081983810228  0.4899502102185473   T   T   T
  0.4999015940797863  0.5015863986310086  0.3503180209965541   T   T   T
  0.6666700000000034  0.5833299999999966  0.1974799999999988   F   F   F
  0.7427747037026607  0.5340546321650531  0.5858424408968618   T   T   T
  0.7303728980030054  0.9996282322109753  0.5841004190004863   T   T   T
  0.8333299999999966  0.6666700000000034  0.2724699999999984   F   F   F
  0.9119613413918731  0.5848951231970819  0.4231350865554090   T   T   T
  0.8365247469290138  0.6701389907726910  0.5032627422066310   T   T   T
  0.7495300923449673  0.4987137208146024  0.3485254785624405   T   T   T
  0.9166700000000034  0.5833299999999966  0.1974799999999988   F   F   F
  0.0833299999999966  0.9166700000000034  0.2724699999999984   F   F   F
  0.1677216798816110  0.8340777128193472  0.4235018012188230   T   T   T
  0.0808116826987350  0.9146736222407473  0.4963546825159756   T   T   T
  0.0014911806135139  0.7509309531564780  0.3491916951817050   T   T   T
  0.1666700000000034  0.8333299999999966  0.1974799999999988   F   F   F
  0.3333299999999966  0.9166700000000034  0.2724699999999984   F   F   F
  0.4168801861977716  0.8311152550161734  0.4244193519862402   T   T   T
  0.3324149736685542  0.9148203047916000  0.4971995754064147   T   T   T
  0.2480095685472405  0.7465939290898649  0.3510626324666605   T   T   T
  0.4166700000000034  0.8333299999999966  0.1974799999999988   F   F   F
  0.4065615005273934  0.7507651332068053  0.6374599335766493   T   T   T
  0.5833299999999966  0.9166700000000034  0.2724699999999984   F   F   F
  0.6676826569484058  0.8392085514315986  0.4230365179152868   T   T   T
  0.5833115951169543  0.9195312264208760  0.5012592922698256   T   T   T
  0.5013696493446148  0.7506723165881245  0.3486178608519745   T   T   T
  0.6666700000000034  0.8333299999999966  0.1974799999999988   F   F   F
  0.8333299999999966  0.9166700000000034  0.2724699999999984   F   F   F
  0.9142102399727690  0.8297441797754936  0.4221869537700413   T   T   T
  0.8347007203296082  0.9171659041749747  0.4960531440384842   T   T   T
  0.7474960326626728  0.7488185527042243  0.3501000836125462   T   T   T
  0.9166700000000034  0.8333299999999966  0.1974799999999988   F   F   F
  0.5666618689833228  0.5293069417697239  0.5784368383760004   T   T   T
  0.2322385798652536  0.7100775501331370  0.5839956138814170   T   T   T
  0.7658440457742601  0.7385145053724615  0.5863898989635281   T   T   T
  0.5326395625182906  0.9785510952846294  0.5989044883749817   T   T   T
  0.5934229597593936  0.4617283417754761  0.6914544800217087   T   T   T
  0.2351111706115375  0.6025060252058141  0.6863793824220720   T   T   T
  0.8065523002932539  0.6576105918145672  0.6852327001737537   T   T   T
  0.6128951511096785  0.9117618600293960  0.6864636125081123   T   T   T
  0.6217691922076566  0.3456350340344402  0.6068420846651977   T   T   T
  0.3308081946382244  0.5572632078413720  0.5957681444392717   T   T   T
  0.9543097915980951  0.7169445549049669  0.5992235006644920   T   T   T
  0.5725152347163216  0.7946009907228666  0.5830859270831225   T   T   T
  0.2520852823488779  0.2072865905308297  0.5887650471004826   T   T   T
  0.9722816201663491  0.4182297156920494  0.6511506298322293   T   T   T
  0.3314396094550334  0.1521228511684075  0.6853077184058416   T   T   T
  0.1522973165175500  0.4228038477554913  0.6654908610951974   T   T   T
  0.4525227795274767  0.1773519824723408  0.5843437147599979   T   T   T
  0.1593663103187239  0.3443267117144971  0.5064314110504184   T   T   T
  0.6022152852549973  0.9174397747378679  0.6036107463845642   T   T   T
  0.2940829912481459  0.6464538857501166  0.6128812854033066   T   T   T
  0.8247772141819973  0.6675089723904197  0.6019230949850780   T   T   T
  0.5718539118412194  0.4251183700234837  0.6113062356851706   T   T   T
  0.0588404407562446  0.4019037227083413  0.6093856891860636   T   T   T
  0.3309178867495590  0.1556613966503632  0.6016917841902701   T   T   T
 
  0.00000000E+00  0.00000000E+00  0.00000000E+00
  0.00000000E+00  0.00000000E+00  0.00000000E+00
  0.00000000E+00  0.00000000E+00  0.00000000E+00
  0.00000000E+00  0.00000000E+00  0.00000000E+00
  0.00000000E+00  0.00000000E+00  0.00000000E+00
  0.00000000E+00  0.00000000E+00  0.00000000E+00
  0.00000000E+00  0.00000000E+00  0.00000000E+00
  0.00000000E+00  0.00000000E+00  0.00000000E+00
  0.00000000E+00  0.00000000E+00  0.00000000E+00
  0.00000000E+00  0.00000000E+00  0.00000000E+00
  0.00000000E+00  0.00000000E+00  0.00000000E+00
  0.00000000E+00  0.00000000E+00  0.00000000E+00
  0.00000000E+00  0.00000000E+00  0.00000000E+00
  0.00000000E+00  0.00000000E+00  0.00000000E+00
  0.00000000E+00  0.00000000E+00  0.00000000E+00
  0.00000000E+00  0.00000000E+00  0.00000000E+00
  0.00000000E+00  0.00000000E+00  0.00000000E+00
  0.00000000E+00  0.00000000E+00  0.00000000E+00
  0.00000000E+00  0.00000000E+00  0.00000000E+00
  0.00000000E+00  0.00000000E+00  0.00000000E+00
  0.00000000E+00  0.00000000E+00  0.00000000E+00
  0.00000000E+00  0.00000000E+00  0.00000000E+00
  0.00000000E+00  0.00000000E+00  0.00000000E+00
  0.00000000E+00  0.00000000E+00  0.00000000E+00
  0.00000000E+00  0.00000000E+00  0.00000000E+00
  0.00000000E+00  0.00000000E+00  0.00000000E+00
  0.00000000E+00  0.00000000E+00  0.00000000E+00
  0.00000000E+00  0.00000000E+00  0.00000000E+00
  0.00000000E+00  0.00000000E+00  0.00000000E+00
  0.00000000E+00  0.00000000E+00  0.00000000E+00
  0.00000000E+00  0.00000000E+00  0.00000000E+00
  0.00000000E+00  0.00000000E+00  0.00000000E+00
  0.00000000E+00  0.00000000E+00  0.00000000E+00
  0.00000000E+00  0.00000000E+00  0.00000000E+00
  0.00000000E+00  0.00000000E+00  0.00000000E+00
  0.00000000E+00  0.00000000E+00  0.00000000E+00
  0.00000000E+00  0.00000000E+00  0.00000000E+00
  0.00000000E+00  0.00000000E+00  0.00000000E+00
  0.00000000E+00  0.00000000E+00  0.00000000E+00
  0.00000000E+00  0.00000000E+00  0.00000000E+00
  0.00000000E+00  0.00000000E+00  0.00000000E+00
  0.00000000E+00  0.00000000E+00  0.00000000E+00
  0.00000000E+00  0.00000000E+00  0.00000000E+00
  0.00000000E+00  0.00000000E+00  0.00000000E+00
  0.00000000E+00  0.00000000E+00  0.00000000E+00
  0.00000000E+00  0.00000000E+00  0.00000000E+00
  0.00000000E+00  0.00000000E+00  0.00000000E+00
  0.00000000E+00  0.00000000E+00  0.00000000E+00
  0.00000000E+00  0.00000000E+00  0.00000000E+00
  0.00000000E+00  0.00000000E+00  0.00000000E+00
  0.00000000E+00  0.00000000E+00  0.00000000E+00
  0.00000000E+00  0.00000000E+00  0.00000000E+00
  0.00000000E+00  0.00000000E+00  0.00000000E+00
  0.00000000E+00  0.00000000E+00  0.00000000E+00
  0.00000000E+00  0.00000000E+00  0.00000000E+00
  0.00000000E+00  0.00000000E+00  0.00000000E+00
  0.00000000E+00  0.00000000E+00  0.00000000E+00
  0.00000000E+00  0.00000000E+00  0.00000000E+00
  0.00000000E+00  0.00000000E+00  0.00000000E+00
  0.00000000E+00  0.00000000E+00  0.00000000E+00
  0.00000000E+00  0.00000000E+00  0.00000000E+00
  0.00000000E+00  0.00000000E+00  0.00000000E+00
  0.00000000E+00  0.00000000E+00  0.00000000E+00
  0.00000000E+00  0.00000000E+00  0.00000000E+00
  0.00000000E+00  0.00000000E+00  0.00000000E+00
  0.00000000E+00  0.00000000E+00  0.00000000E+00
  0.00000000E+00  0.00000000E+00  0.00000000E+00
  0.00000000E+00  0.00000000E+00  0.00000000E+00
  0.00000000E+00  0.00000000E+00  0.00000000E+00
  0.00000000E+00  0.00000000E+00  0.00000000E+00
  0.00000000E+00  0.00000000E+00  0.00000000E+00
  0.00000000E+00  0.00000000E+00  0.00000000E+00
  0.00000000E+00  0.00000000E+00  0.00000000E+00
  0.00000000E+00  0.00000000E+00  0.00000000E+00
  0.00000000E+00  0.00000000E+00  0.00000000E+00
  0.00000000E+00  0.00000000E+00  0.00000000E+00
  0.00000000E+00  0.00000000E+00  0.00000000E+00
  0.00000000E+00  0.00000000E+00  0.00000000E+00
  0.00000000E+00  0.00000000E+00  0.00000000E+00
  0.00000000E+00  0.00000000E+00  0.00000000E+00
  0.00000000E+00  0.00000000E+00  0.00000000E+00
  0.00000000E+00  0.00000000E+00  0.00000000E+00
  0.00000000E+00  0.00000000E+00  0.00000000E+00
  0.00000000E+00  0.00000000E+00  0.00000000E+00
  0.00000000E+00  0.00000000E+00  0.00000000E+00
  0.00000000E+00  0.00000000E+00  0.00000000E+00
  0.00000000E+00  0.00000000E+00  0.00000000E+00
  0.00000000E+00  0.00000000E+00  0.00000000E+00
  0.00000000E+00  0.00000000E+00  0.00000000E+00
  0.00000000E+00  0.00000000E+00  0.00000000E+00
  0.00000000E+00  0.00000000E+00  0.00000000E+00
  0.00000000E+00  0.00000000E+00  0.00000000E+00
  0.00000000E+00  0.00000000E+00  0.00000000E+00
  0.00000000E+00  0.00000000E+00  0.00000000E+00
  0.00000000E+00  0.00000000E+00  0.00000000E+00
  0.00000000E+00  0.00000000E+00  0.00000000E+00
  0.00000000E+00  0.00000000E+00  0.00000000E+00
  0.00000000E+00  0.00000000E+00  0.00000000E+00
  0.00000000E+00  0.00000000E+00  0.00000000E+00
  0.00000000E+00  0.00000000E+00  0.00000000E+00
  0.00000000E+00  0.00000000E+00  0.00000000E+00
  0.00000000E+00  0.00000000E+00  0.00000000E+00
  0.00000000E+00  0.00000000E+00  0.00000000E+00
  0.00000000E+00  0.00000000E+00  0.00000000E+00
  0.00000000E+00  0.00000000E+00  0.00000000E+00
  0.00000000E+00  0.00000000E+00  0.00000000E+00
  0.00000000E+00  0.00000000E+00  0.00000000E+00
  0.00000000E+00  0.00000000E+00  0.00000000E+00
  0.00000000E+00  0.00000000E+00  0.00000000E+00
  0.00000000E+00  0.00000000E+00  0.00000000E+00
  0.00000000E+00  0.00000000E+00  0.00000000E+00
  0.00000000E+00  0.00000000E+00  0.00000000E+00
  0.00000000E+00  0.00000000E+00  0.00000000E+00
  0.00000000E+00  0.00000000E+00  0.00000000E+00
  0.00000000E+00  0.00000000E+00  0.00000000E+00
  0.00000000E+00  0.00000000E+00  0.00000000E+00
  0.00000000E+00  0.00000000E+00  0.00000000E+00
  0.00000000E+00  0.00000000E+00  0.00000000E+00
  0.00000000E+00  0.00000000E+00  0.00000000E+00
  0.00000000E+00  0.00000000E+00  0.00000000E+00
  0.00000000E+00  0.00000000E+00  0.00000000E+00
  0.00000000E+00  0.00000000E+00  0.00000000E+00
  0.00000000E+00  0.00000000E+00  0.00000000E+00
  0.00000000E+00  0.00000000E+00  0.00000000E+00
  0.00000000E+00  0.00000000E+00  0.00000000E+00
  0.00000000E+00  0.00000000E+00  0.00000000E+00
  0.00000000E+00  0.00000000E+00  0.00000000E+00
  0.00000000E+00  0.00000000E+00  0.00000000E+00
  0.00000000E+00  0.00000000E+00  0.00000000E+00
  0.00000000E+00  0.00000000E+00  0.00000000E+00
  0.00000000E+00  0.00000000E+00  0.00000000E+00
  0.00000000E+00  0.00000000E+00  0.00000000E+00
  0.00000000E+00  0.00000000E+00  0.00000000E+00
  0.00000000E+00  0.00000000E+00  0.00000000E+00
  0.00000000E+00  0.00000000E+00  0.00000000E+00
  0.00000000E+00  0.00000000E+00  0.00000000E+00
  0.00000000E+00  0.00000000E+00  0.00000000E+00
  0.00000000E+00  0.00000000E+00  0.00000000E+00
  0.00000000E+00  0.00000000E+00  0.00000000E+00
  0.00000000E+00  0.00000000E+00  0.00000000E+00
  0.00000000E+00  0.00000000E+00  0.00000000E+00
  0.00000000E+00  0.00000000E+00  0.00000000E+00
  0.00000000E+00  0.00000000E+00  0.00000000E+00
