K-Spacing Value to Generate K-Mesh: 0.030
0
G
   1   1   1
0.0  0.0  0.0
