Generated by VASPKIT code               
   1.00000000000000     
    15.4642999999999997    0.0000000000000000    0.0000000000000000
    -7.7321499999999999   13.3924766500000008    0.0000000000000000
     0.0000000000000000    0.0000000000000000   21.0482000000000014
  Ce              Ir              O               H             
    32     4   118    40
Selective dynamics
Direct
  0.9992116132780264  0.0023303666363466  0.3591629521472664   T   T   T
  0.1666700000000034  0.0833299999999966  0.2078100000000020   F   F   F
  0.2440460258681449  0.9957239656308053  0.3572784123912404   T   T   T
  0.4166700000000034  0.0833299999999966  0.2078100000000020   F   F   F
  0.5000936576671158  0.0021350583983047  0.3589169713156061   T   T   T
  0.6666700000000034  0.0833299999999966  0.2078100000000020   F   F   F
  0.7583248360253148  0.0007312475494128  0.3577027925268144   T   T   T
  0.9166700000000034  0.0833299999999966  0.2078100000000020   F   F   F
  0.9959507183961142  0.2475742110009642  0.3556472014302848   T   T   T
  0.1666700000000034  0.3333299999999966  0.2078100000000020   F   F   F
  0.2489931585375271  0.2503611317439995  0.3598526120291264   T   T   T
  0.4166700000000034  0.3333299999999966  0.2078100000000020   F   F   F
  0.5048205233235347  0.2481780337688028  0.3620415592677523   T   T   T
  0.6666700000000034  0.3333299999999966  0.2078100000000020   F   F   F
  0.7541424370399483  0.2484912430387916  0.3579070350474316   T   T   T
  0.9166700000000034  0.3333299999999966  0.2078100000000020   F   F   F
  0.0016466085263056  0.5001645140210929  0.3588410364937756   T   T   T
  0.1666700000000034  0.5833299999999966  0.2078100000000020   F   F   F
  0.2420197151984928  0.4907707411115435  0.3572146167735163   T   T   T
  0.4166700000000034  0.5833299999999966  0.2078100000000020   F   F   F
  0.4959095383024556  0.5001993662254328  0.3592049080249181   T   T   T
  0.6666700000000034  0.5833299999999966  0.2078100000000020   F   F   F
  0.7562538011233875  0.5039176052049191  0.3596580896119116   T   T   T
  0.9166700000000034  0.5833299999999966  0.2078100000000020   F   F   F
  0.9965315028835042  0.7465063615378539  0.3583662576172441   T   T   T
  0.1666700000000034  0.8333299999999966  0.2078100000000020   F   F   F
  0.2459662398897052  0.7501837261583079  0.3615524300997944   T   T   T
  0.4166700000000034  0.8333299999999966  0.2078100000000020   F   F   F
  0.5025785365611105  0.7461452542726505  0.3615808242919006   T   T   T
  0.6666700000000034  0.8333299999999966  0.2078100000000020   F   F   F
  0.7510455628585133  0.7501304497171807  0.3586254297132658   T   T   T
  0.9166700000000034  0.8333299999999966  0.2078100000000020   F   F   F
  0.5778479406261919  0.9128651252213227  0.5008789398311895   T   T   T
  0.3304244612765983  0.6690427897411985  0.5006338244376677   T   T   T
  0.5778491855896858  0.4224609375096253  0.5018422658095202   T   T   T
  0.3346284118539578  0.1725665778727007  0.5013076256069197   T   T   T
  0.0833299999999966  0.1666700000000034  0.1703199999999967   F   F   F
  0.1662882423520360  0.0891997655565977  0.3148236101134319   T   T   T
  0.0896906403612424  0.1776592535771856  0.3953178797305631   T   T   T
  0.0000000000000000  0.0000000000000000  0.2453000000000003   F   F   F
  0.1666700000000034  0.0833299999999966  0.0953299999999970   F   F   F
  0.2031129592037996  0.0641910535996280  0.5159923425050756   T   T   T
  0.3333299999999966  0.1666700000000034  0.1703199999999967   F   F   F
  0.4147217973258425  0.0934253747565028  0.3167868811657257   T   T   T
  0.3250879578291529  0.1544272799237213  0.3914528538025308   T   T   T
  0.2500000000000000  0.0000000000000000  0.2453000000000003   F   F   F
  0.4166700000000034  0.0833299999999966  0.0953299999999970   F   F   F
  0.5833299999999966  0.1666700000000034  0.1703199999999967   F   F   F
  0.6661694031249373  0.0807955422556691  0.3243398752203358   T   T   T
  0.5899585155375738  0.1733097714949605  0.3899598882794572   T   T   T
  0.5000000000000000  0.0000000000000000  0.2453000000000003   F   F   F
  0.6666700000000034  0.0833299999999966  0.0953299999999970   F   F   F
  0.7123856403465387  0.0081938085303665  0.4911601522173459   T   T   T
  0.8333299999999966  0.1666700000000034  0.1703199999999967   F   F   F
  0.9153119037168760  0.0784213956925225  0.3159686056984906   T   T   T
  0.8342097230633693  0.1620753805513163  0.3906778042969851   T   T   T
  0.7500000000000000  0.0000000000000000  0.2453000000000003   F   F   F
  0.9166700000000034  0.0833299999999966  0.0953299999999970   F   F   F
  0.0833299999999966  0.4166700000000034  0.1703199999999967   F   F   F
  0.1540840142018898  0.3257948391605832  0.3144109668915690   T   T   T
  0.0841132534456184  0.4182070680507732  0.3850095169223127   T   T   T
  0.0000000000000000  0.2500000000000000  0.2453000000000003   F   F   F
  0.1666700000000034  0.3333299999999966  0.0953299999999970   F   F   F
  0.3333299999999966  0.4166700000000034  0.1703199999999967   F   F   F
  0.4120884057229615  0.3387025523476526  0.3222977723761447   T   T   T
  0.3294083525916611  0.4191430452532200  0.3894615629795088   T   T   T
  0.2500000000000000  0.2500000000000000  0.2453000000000003   F   F   F
  0.4166700000000034  0.3333299999999966  0.0953299999999970   F   F   F
  0.4844531274555520  0.2699046442719522  0.4650387642049806   T   T   T
  0.5833299999999966  0.4166700000000034  0.1703199999999967   F   F   F
  0.6485419919444949  0.3216233361950211  0.3150886339599916   T   T   T
  0.5905864350093443  0.4213235459978876  0.4040057946726788   T   T   T
  0.5000000000000000  0.2500000000000000  0.2453000000000003   F   F   F
  0.6666700000000034  0.3333299999999966  0.0953299999999970   F   F   F
  0.8333299999999966  0.4166700000000034  0.1703199999999967   F   F   F
  0.9143293378978413  0.3420670253521745  0.3133810863207278   T   T   T
  0.8342725076280394  0.4081839067929649  0.4031701411502046   T   T   T
  0.7500000000000000  0.2500000000000000  0.2453000000000003   F   F   F
  0.9166700000000034  0.3333299999999966  0.0953299999999970   F   F   F
  0.0833299999999966  0.6666700000000034  0.1703199999999967   F   F   F
  0.1659699832093005  0.5815552004150525  0.3200919753762563   T   T   T
  0.0860004282432118  0.6769902796118635  0.3957537589588537   T   T   T
  0.0000000000000000  0.5000000000000000  0.2453000000000003   F   F   F
  0.1666700000000034  0.5833299999999966  0.0953299999999970   F   F   F
  0.1939200238871674  0.5631148392477353  0.5087045570044880   T   T   T
  0.3333299999999966  0.6666700000000034  0.1703199999999967   F   F   F
  0.4142101201178702  0.5937566286449407  0.3199250673926045   T   T   T
  0.3231148500756827  0.6563112463692623  0.4034194036533750   T   T   T
  0.2500000000000000  0.5000000000000000  0.2453000000000003   F   F   F
  0.4166700000000034  0.5833299999999966  0.0953299999999970   F   F   F
  0.5833299999999966  0.6666700000000034  0.1703199999999967   F   F   F
  0.6701519356868947  0.5867543411197700  0.3160725757196117   T   T   T
  0.5841996192854283  0.6684311754945909  0.3846656670599598   T   T   T
  0.5000000000000000  0.5000000000000000  0.2453000000000003   F   F   F
  0.6666700000000034  0.5833299999999966  0.0953299999999970   F   F   F
  0.6854352113428179  0.5585466873845126  0.5118645728156654   T   T   T
  0.8333299999999966  0.6666700000000034  0.1703199999999967   F   F   F
  0.9229064088024892  0.5881326461605791  0.3159044543237717   T   T   T
  0.8402917232114483  0.6731763728795362  0.3878288371415085   T   T   T
  0.7500000000000000  0.5000000000000000  0.2453000000000003   F   F   F
  0.9166700000000034  0.5833299999999966  0.0953299999999970   F   F   F
  0.0833299999999966  0.9166700000000034  0.1703199999999967   F   F   F
  0.1637169831751199  0.8289627715461749  0.3210042052459371   T   T   T
  0.0916287766848378  0.9204627081324003  0.3956325413129777   T   T   T
  0.0000000000000000  0.7500000000000000  0.2453000000000003   F   F   F
  0.1666700000000034  0.8333299999999966  0.0953299999999970   F   F   F
  0.3333299999999966  0.9166700000000034  0.1703199999999967   F   F   F
  0.4332045494852908  0.8372693980306947  0.3278287968310082   T   T   T
  0.3236777137197062  0.9131486535580124  0.3869127666809829   T   T   T
  0.2500000000000000  0.7500000000000000  0.2453000000000003   F   F   F
  0.4166700000000034  0.8333299999999966  0.0953299999999970   F   F   F
  0.4835511365687322  0.7747315065667552  0.4674110639923789   T   T   T
  0.5833299999999966  0.9166700000000034  0.1703199999999967   F   F   F
  0.6726649138793783  0.8366000259706371  0.3210565081020511   T   T   T
  0.5981848663974807  0.9335460232261771  0.4046101351666029   T   T   T
  0.5000000000000000  0.7500000000000000  0.2453000000000003   F   F   F
  0.6666700000000034  0.8333299999999966  0.0953299999999970   F   F   F
  0.8333299999999966  0.9166700000000034  0.1703199999999967   F   F   F
  0.9165302483576855  0.8323837125237257  0.3140707023728713   T   T   T
  0.8420502223257973  0.9284536236417690  0.3958440590107719   T   T   T
  0.7500000000000000  0.7500000000000000  0.2453000000000003   F   F   F
  0.9166700000000034  0.8333299999999966  0.0953299999999970   F   F   F
  0.4820777317494649  0.4477821267190048  0.4781543066559635   T   T   T
  0.2965888652129443  0.7623729844172629  0.4790938062900439   T   T   T
  0.4778556445216348  0.9194739697587715  0.4607473357057534   T   T   T
  0.5374635345935107  0.3822609849394611  0.5775422723605079   T   T   T
  0.3881551043482294  0.7154422591797693  0.5560399881255212   T   T   T
  0.5493144494202739  0.8912295379518295  0.5818030987176934   T   T   T
  0.6584755630066791  0.3711916329164269  0.4970254354262776   T   T   T
  0.3868434785979715  0.5931013119866284  0.4921958386249883   T   T   T
  0.6764067265143204  0.8714709361152420  0.4891366917468328   T   T   T
  0.3010086810800906  0.2636480213823931  0.4769267156445219   T   T   T
  0.3580650990043098  0.1775815090800855  0.5482182974320846   T   T   T
  0.3870851697735551  0.1025187742122522  0.4841439722571441   T   T   T
  0.6272435284007529  0.3982645303731288  0.7433328058666587   T   T   T
  0.7666045832338207  0.3212756320072368  0.6819231951339610   T   T   T
  0.7873484587046787  0.4865608113143451  0.7430790059951522   T   T   T
  0.2597227700699983  0.7251188015578226  0.7527841240619932   T   T   T
  0.3215263645854501  0.6292023878196450  0.7706345302486697   T   T   T
  0.4202584131323384  0.5902931786283356  0.7189230974381117   T   T   T
  0.9111819033183990  0.9648423632528391  0.8058049229168786   T   T   T
  0.4714826366910310  0.4532858824685625  0.6067502224724208   T   T   T
  0.4513282607673076  0.2722666429848869  0.5986458392368444   T   T   T
  0.1902853155756212  0.4195958048673039  0.6573571003056385   T   T   T
  0.6138027622544610  0.5844950798522405  0.6432753544665439   T   T   T
  0.5801382559939479  0.1599146599905481  0.5555215050830535   T   T   T
  0.2809743852511016  0.7296345283601852  0.6584700717096811   T   T   T
  0.8872525831875488  0.2385241442787518  0.5478957041492956   T   T   T
  0.1072296328387404  0.1360933072270869  0.7442250094578868   T   T   T
  0.2117808436928715  0.0847040751533200  0.6640368493489645   T   T   T
  0.4143060501314579  0.3204763553836829  0.8514636722326901   T   T   T
  0.2427010156880603  0.9221161506629046  0.6489461845498974   T   T   T
  0.0946778033947252  0.7073500096737918  0.6156222267887073   T   T   T
  0.5772012150404178  0.8345329723175967  0.8005136748874929   T   T   T
  0.7097849571261220  0.5538674595691599  0.8138429876859814   T   T   T
  0.6957459466950471  0.4829213405591329  0.7309216155334064   T   T   T
  0.7821562069756141  0.3476346754974239  0.7200957900264588   T   T   T
  0.8398942695951830  0.4049778854780488  0.7087964975498590   T   T   T
  0.7112726932379883  0.4161352779060463  0.8004879506299438   T   T   T
  0.3760182811557649  0.2972771392899982  0.4211062596937434   T   T   T
  0.5549307029681567  0.1898136872280891  0.0047669199295697   T   T   T
  0.2378123738203592  0.6058912969077429  0.7136854333960225   T   T   T
  0.3290419311920535  0.6860539439186524  0.8977641766036054   T   T   T
  0.3855801467488458  0.8214064852881726  0.8061681797135972   T   T   T
  0.2045349858967967  0.5009013580361882  0.7361450466748957   T   T   T
  0.5534650387957557  0.6957604835816318  0.7085481368724752   T   T   T
  0.9105978125954000  0.0615538154042454  0.8684289028911414   T   T   T
  0.0222882205180612  0.0830671396897191  0.8215365429895696   T   T   T
  0.2236614629295941  0.2144067792227302  0.4779553636484821   T   T   T
  0.5259862623634195  0.5098304519099579  0.5743629672922632   T   T   T
  0.2194161174201937  0.5653699925568350  0.5000022104875980   T   T   T
  0.4993966419464520  0.3703243284231204  0.4903923369055199   T   T   T
  0.2030003753763784  0.5336665446082307  0.6597019827398125   T   T   T
  0.2774209150048814  0.4775689158856282  0.6123819260591193   T   T   T
  0.6211090482334236  0.3249355485536392  0.4823814354249858   T   T   T
  0.1631755513660649  0.1917170965542844  0.5268881674516560   T   T   T
  0.3622695040019415  0.1265859929190590  0.5204262627040890   T   T   T
  0.6006296999892327  0.2769199119630926  0.5276441443029564   T   T   T
  0.2059078126037956  0.8113495693906987  0.6807437623858973   T   T   T
  0.2905942577896814  0.7096498399681764  0.6424465959504166   T   T   T
  0.8954330779834638  0.3139226175233102  0.6027825319181865   T   T   T
  0.9391104165457742  0.2735317346111952  0.5658383905075768   T   T   T
  0.0849993187600546  0.2027217348463897  0.7643697476509870   T   T   T
  0.1253194469350378  0.1943164979591148  0.7819149278152014   T   T   T
  0.2110284299303918  0.1483882218141510  0.6238076365744253   T   T   T
  0.4549038099580180  0.2290123176981989  0.7586900947755412   T   T   T
  0.3953602734605138  0.4407008079532057  0.0180713914373394   T   T   T
  0.5319633933159027  0.2708273082036327  0.7505966981953872   T   T   T
  0.2568247082296555  0.1184264781848867  0.6235362352132983   T   T   T
  0.2662927949437806  0.0083570779673980  0.6441783359052593   T   T   T
  0.0668266780934064  0.7593617063044648  0.6202311666186443   T   T   T
  0.1559758793914297  0.7245698250377069  0.5604314148540153   T   T   T
  0.5675371299832598  0.9002362789698501  0.8513195053400203   T   T   T
  0.5718232658725666  0.8641848342399043  0.8374897936076557   T   T   T
 
 -0.17427632E-02  0.11051298E-02 -0.55047616E-03
  0.00000000E+00  0.00000000E+00  0.00000000E+00
 -0.59563848E-03 -0.51665196E-03 -0.10381445E-02
  0.00000000E+00  0.00000000E+00  0.00000000E+00
  0.24671261E-02 -0.26631000E-03 -0.13546318E-02
  0.00000000E+00  0.00000000E+00  0.00000000E+00
  0.84748446E-03 -0.26260566E-02  0.25354770E-03
  0.00000000E+00  0.00000000E+00  0.00000000E+00
 -0.99246144E-03 -0.16111707E-02 -0.36638597E-02
  0.00000000E+00  0.00000000E+00  0.00000000E+00
 -0.72846249E-03 -0.87814924E-03 -0.54093674E-02
  0.00000000E+00  0.00000000E+00  0.00000000E+00
  0.80025055E-03 -0.15928934E-02 -0.38154803E-02
  0.00000000E+00  0.00000000E+00  0.00000000E+00
  0.20400209E-02 -0.15036508E-02 -0.71033975E-03
  0.00000000E+00  0.00000000E+00  0.00000000E+00
  0.29013878E-03  0.55476423E-03 -0.91088954E-03
  0.00000000E+00  0.00000000E+00  0.00000000E+00
  0.66321998E-03 -0.16350069E-02 -0.17684580E-02
  0.00000000E+00  0.00000000E+00  0.00000000E+00
 -0.56465143E-03  0.45996636E-03 -0.36897335E-03
  0.00000000E+00  0.00000000E+00  0.00000000E+00
 -0.16452484E-02  0.76554390E-03  0.90170781E-04
  0.00000000E+00  0.00000000E+00  0.00000000E+00
  0.51867968E-03  0.33539336E-03 -0.13110400E-02
  0.00000000E+00  0.00000000E+00  0.00000000E+00
 -0.25287530E-03  0.26095720E-03  0.10944809E-02
  0.00000000E+00  0.00000000E+00  0.00000000E+00
  0.13593466E-02 -0.55672953E-03 -0.18908323E-02
  0.00000000E+00  0.00000000E+00  0.00000000E+00
 -0.92438053E-03  0.11498529E-02 -0.41729690E-03
  0.00000000E+00  0.00000000E+00  0.00000000E+00
  0.26310063E-02 -0.48427459E-02 -0.23971002E-02
 -0.66656832E-02 -0.59543997E-02 -0.25935940E-01
  0.21699960E-01  0.21321013E-01  0.11748928E-02
 -0.10289097E+00  0.10297364E-01 -0.24028376E+00
  0.00000000E+00  0.00000000E+00  0.00000000E+00
 -0.39414472E-02 -0.21657848E-02  0.91452276E-02
 -0.31117712E-02  0.93647502E-05  0.30534125E-02
  0.00000000E+00  0.00000000E+00  0.00000000E+00
  0.00000000E+00  0.00000000E+00  0.00000000E+00
 -0.10714500E-01  0.93514786E-02  0.51484636E-02
  0.00000000E+00  0.00000000E+00  0.00000000E+00
  0.65401035E-02 -0.43292143E-02  0.53093951E-02
 -0.10332333E-01  0.18909422E-01  0.71014202E-02
  0.00000000E+00  0.00000000E+00  0.00000000E+00
  0.00000000E+00  0.00000000E+00  0.00000000E+00
  0.00000000E+00  0.00000000E+00  0.00000000E+00
 -0.33346765E-02  0.32500841E-02 -0.31465701E-02
  0.28357455E-02  0.17821014E-04  0.54607853E-02
  0.00000000E+00  0.00000000E+00  0.00000000E+00
  0.00000000E+00  0.00000000E+00  0.00000000E+00
  0.27166317E-01 -0.75948429E-02 -0.22645756E-02
  0.00000000E+00  0.00000000E+00  0.00000000E+00
  0.67030349E-02  0.91808233E-02  0.39529648E-02
  0.35950388E-02  0.14774403E-01 -0.51159875E-02
  0.00000000E+00  0.00000000E+00  0.00000000E+00
  0.00000000E+00  0.00000000E+00  0.00000000E+00
  0.00000000E+00  0.00000000E+00  0.00000000E+00
  0.38752763E-02  0.30681681E-02  0.81801355E-02
 -0.95565654E-02 -0.59038668E-02  0.30809191E-02
  0.00000000E+00  0.00000000E+00  0.00000000E+00
  0.00000000E+00  0.00000000E+00  0.00000000E+00
  0.00000000E+00  0.00000000E+00  0.00000000E+00
  0.42243788E-02 -0.89461185E-02  0.46906106E-02
 -0.10830527E-01 -0.56496216E-02  0.14872592E-02
  0.00000000E+00  0.00000000E+00  0.00000000E+00
  0.00000000E+00  0.00000000E+00  0.00000000E+00
 -0.51571940E-02  0.86522174E-02  0.19897038E-01
  0.00000000E+00  0.00000000E+00  0.00000000E+00
  0.13698102E-01  0.17153443E-01  0.61909546E-02
  0.17795483E-01  0.11075264E-01 -0.13525393E-01
  0.00000000E+00  0.00000000E+00  0.00000000E+00
  0.00000000E+00  0.00000000E+00  0.00000000E+00
  0.00000000E+00  0.00000000E+00  0.00000000E+00
 -0.11412411E-02 -0.10511659E-02  0.15920490E-01
 -0.41418964E-02  0.25559392E-02 -0.50667361E-02
  0.00000000E+00  0.00000000E+00  0.00000000E+00
  0.00000000E+00  0.00000000E+00  0.00000000E+00
  0.00000000E+00  0.00000000E+00  0.00000000E+00
 -0.42489392E-02  0.37685216E-02  0.51754057E-02
 -0.50270142E-03 -0.10028888E-01  0.35750759E-02
  0.00000000E+00  0.00000000E+00  0.00000000E+00
  0.00000000E+00  0.00000000E+00  0.00000000E+00
 -0.37130432E+01 -0.25746529E+00  0.18126676E+01
  0.00000000E+00  0.00000000E+00  0.00000000E+00
 -0.65211835E-02 -0.89575933E-02 -0.87482216E-03
 -0.35047377E-02 -0.44172388E-02  0.52643471E-02
  0.00000000E+00  0.00000000E+00  0.00000000E+00
  0.00000000E+00  0.00000000E+00  0.00000000E+00
  0.00000000E+00  0.00000000E+00  0.00000000E+00
  0.10380784E-01 -0.13276301E-01  0.72887049E-02
 -0.30807228E-02 -0.45587324E-02  0.55728483E-03
  0.00000000E+00  0.00000000E+00  0.00000000E+00
  0.00000000E+00  0.00000000E+00  0.00000000E+00
 -0.13245701E-01  0.25098269E-03  0.29693928E-02
  0.00000000E+00  0.00000000E+00  0.00000000E+00
 -0.14327576E-02 -0.13919899E-01  0.13845430E-01
  0.66898255E-02 -0.18246929E-01  0.36245323E-02
  0.00000000E+00  0.00000000E+00  0.00000000E+00
  0.00000000E+00  0.00000000E+00  0.00000000E+00
  0.00000000E+00  0.00000000E+00  0.00000000E+00
 -0.30775486E-02 -0.42116228E-03 -0.58083884E-02
 -0.69687759E-02  0.11250523E-02 -0.13043505E-02
  0.00000000E+00  0.00000000E+00  0.00000000E+00
  0.00000000E+00  0.00000000E+00  0.00000000E+00
  0.00000000E+00  0.00000000E+00  0.00000000E+00
 -0.41523139E-02  0.23004605E-02 -0.26347291E-02
  0.50664436E-02  0.40281384E-02 -0.24035232E-02
  0.00000000E+00  0.00000000E+00  0.00000000E+00
  0.00000000E+00  0.00000000E+00  0.00000000E+00
  0.11218063E-01 -0.76312056E-02  0.32317457E-02
  0.00000000E+00  0.00000000E+00  0.00000000E+00
 -0.69365086E-02  0.57259213E-02 -0.45065157E-02
  0.14871285E-01  0.12244107E-02 -0.22176241E-01
  0.00000000E+00  0.00000000E+00  0.00000000E+00
  0.00000000E+00  0.00000000E+00  0.00000000E+00
  0.00000000E+00  0.00000000E+00  0.00000000E+00
  0.61722399E-02  0.88044811E-02  0.90021280E-02
  0.12119386E-01  0.56580900E-02  0.30082197E-02
  0.00000000E+00  0.00000000E+00  0.00000000E+00
  0.00000000E+00  0.00000000E+00  0.00000000E+00
 -0.65772690E-01  0.33213416E-01 -0.18721558E-01
 -0.22593270E-01 -0.41944527E-02 -0.20559737E-02
 -0.19283691E-01 -0.25672645E-02  0.98331466E-02
 -0.27844929E-03 -0.32416682E-01  0.85591133E-01
  0.13805051E+00  0.15865359E+00  0.30067636E+00
  0.16132093E-02  0.87096274E-02  0.23244420E-02
  0.20386064E+00  0.28871220E+00  0.18988837E+00
  0.93587552E-02 -0.36886633E-01 -0.10045598E-01
  0.47344504E-02 -0.92585627E-02  0.51457755E-03
 -0.45063313E-01  0.37540881E-01 -0.21799605E-01
  0.82515406E+00  0.24935296E+00  0.27941688E+01
  0.11600790E+00 -0.10813071E+00 -0.67767189E-01
  0.23457008E-01  0.17915158E-01  0.15537078E-01
  0.20102042E-01  0.62933391E-02 -0.76690095E-01
 -0.81823687E-01 -0.58122680E-01  0.14567194E-01
  0.13410871E+00  0.67980431E-01  0.22199158E-01
  0.68555959E-03 -0.21152034E-01 -0.29447227E-02
 -0.52120614E-02  0.55025798E-01  0.34892026E-01
  0.31135026E-01  0.12577886E+00  0.87064892E-01
  0.25132193E-01  0.35742134E-01 -0.33578734E-01
  0.54305963E-01  0.51411785E-01 -0.67907602E-01
  0.14238602E-01  0.61921403E-01 -0.27690977E-01
 -0.35804231E-01 -0.82462028E-01 -0.48100992E-01
 -0.40936559E-01  0.80243602E-01  0.22698053E-01
 -0.11384877E+01  0.98916369E+00  0.12224366E+01
 -0.15713329E+00 -0.75983147E-01 -0.47648951E-01
 -0.38308770E-01  0.41177720E-01  0.38083335E-01
 -0.32165246E-01  0.22057417E-01 -0.44656065E-01
 -0.64143674E-02  0.16996971E-01  0.11114360E+00
  0.34807235E-02  0.89553674E-02 -0.24358754E-02
  0.64169253E-02  0.40105199E-01 -0.30511360E-01
  0.11540482E-01 -0.19847523E-01 -0.66321930E-01
  0.14849385E-01  0.94146472E-01  0.62160887E-01
  0.19688166E-01 -0.27366500E+00 -0.25751302E-01
 -0.41814551E+00 -0.15360181E+00  0.19465958E+01
  0.75558850E-02  0.14196867E+00 -0.63228051E+00
 -0.10948574E+00  0.90164824E-01 -0.58403870E+00
 -0.65409846E+00 -0.76520683E+00 -0.17326356E+00
  0.17893649E+00  0.36087529E+00  0.29333541E+00
  0.32967123E+00 -0.92173523E-01  0.12890919E+00
  0.29868697E-01  0.24204722E-01  0.86431914E-01
 -0.18413112E+00 -0.11848435E+00 -0.10425815E+00
 -0.34684235E-01  0.26150113E+00 -0.23460412E+00
 -0.37604821E+00 -0.39187294E+00  0.84718678E-01
  0.19382386E+00 -0.57490352E-01 -0.11202671E+00
 -0.18201328E+00 -0.27980102E+00 -0.84210877E-01
 -0.40890579E+00 -0.14492526E+00  0.30367902E-02
 -0.40217323E+00 -0.43418030E+00  0.42870882E+00
  0.58779754E+02  0.32555920E+01 -0.29265571E+02
 -0.46173654E+01 -0.37952957E+01 -0.14399195E+01
  0.16590217E+00 -0.40826208E+00  0.19909281E+00
 -0.48770787E+00 -0.50100164E+00  0.60225142E+00
 -0.15461896E+01 -0.56876242E+01 -0.35306112E+01
 -0.23666987E+00 -0.45515199E+00 -0.21418254E+00
  0.58995790E+01 -0.55088346E+01  0.21364327E+01
  0.26984266E+00 -0.33010212E+00  0.48139584E+00
 -0.11101564E+00  0.40569377E+00 -0.38243206E+00
  0.17736019E+02 -0.15661591E+02 -0.19584824E+02
 -0.94328170E-01 -0.51347921E+00 -0.48869933E+00
  0.25706148E+01  0.17347360E+01  0.13135144E+01
 -0.51385225E+00 -0.32563784E+00 -0.82267165E+00
  0.10326500E+01 -0.31798399E+00  0.32761417E+00
 -0.28565786E+00 -0.39442525E+00  0.50639495E+00
  0.66148358E+00  0.41578571E+00 -0.49617809E-02
 -0.11052011E-01  0.77906906E-01  0.35441174E+00
 -0.60096540E+00 -0.44246914E+00  0.12037645E+00
  0.33885129E+00 -0.26870519E+00  0.22416024E+00
  0.74170067E-01 -0.96412986E+00  0.30798337E+00
  0.55012167E+00 -0.33942408E+00 -0.25797385E+00
 -0.61735834E+00 -0.47798537E-01  0.74022866E+00
 -0.79942000E+00  0.11535682E+01  0.30739485E+00
  0.52548524E+00 -0.90824442E+00  0.70183270E+00
 
           1
   20.0000000000000     
  0.10000000E+01  0.00000000E+00  0.00000000E+00  0.00000000E+00
  0.99778288E+00  0.39807407E-02  0.35863989E+00
  0.16667000E+00  0.83330000E-01  0.20781000E+00
  0.24288991E+00  0.99495241E+00  0.35629197E+00
  0.41667000E+00  0.83330000E-01  0.20781000E+00
  0.50308554E+00  0.17373575E-02  0.35762980E+00
  0.66667000E+00  0.83330000E-01  0.20781000E+00
  0.75746004E+00  0.99680956E+00  0.35794371E+00
  0.91667000E+00  0.83330000E-01  0.20781000E+00
  0.99346413E+00  0.24516813E+00  0.35216580E+00
  0.16667000E+00  0.33333000E+00  0.20781000E+00
  0.24739533E+00  0.24904972E+00  0.35471263E+00
  0.41667000E+00  0.33333000E+00  0.20781000E+00
  0.50466609E+00  0.24579925E+00  0.35841609E+00
  0.66667000E+00  0.33333000E+00  0.20781000E+00
  0.75565804E+00  0.24624573E+00  0.35723207E+00
  0.91667000E+00  0.33333000E+00  0.20781000E+00
  0.24360811E-02  0.50099299E+00  0.35797551E+00
  0.16667000E+00  0.58333000E+00  0.20781000E+00
  0.24165662E+00  0.48832906E+00  0.35553423E+00
  0.41667000E+00  0.58333000E+00  0.20781000E+00
  0.49552273E+00  0.50088627E+00  0.35885431E+00
  0.66667000E+00  0.58333000E+00  0.20781000E+00
  0.75469762E+00  0.50506085E+00  0.35974377E+00
  0.91667000E+00  0.58333000E+00  0.20781000E+00
  0.99745275E+00  0.74700723E+00  0.35712051E+00
  0.16667000E+00  0.83333000E+00  0.20781000E+00
  0.24583405E+00  0.75057343E+00  0.36259241E+00
  0.41667000E+00  0.83333000E+00  0.20781000E+00
  0.50392088E+00  0.74531385E+00  0.35978416E+00
  0.66667000E+00  0.83333000E+00  0.20781000E+00
  0.75070864E+00  0.75184761E+00  0.35822891E+00
  0.91667000E+00  0.83333000E+00  0.20781000E+00
  0.57763460E+00  0.90563309E+00  0.49860122E+00
  0.31735765E+00  0.66015063E+00  0.47598949E+00
  0.62183391E+00  0.45430122E+00  0.50295865E+00
  0.20924829E+00  0.18794441E+00  0.27299000E+00
  0.83330000E-01  0.16667000E+00  0.17032000E+00
  0.15957360E+00  0.85965435E-01  0.32351341E+00
  0.85673175E-01  0.17767324E+00  0.39821923E+00
  0.00000000E+00  0.00000000E+00  0.24530000E+00
  0.16667000E+00  0.83330000E-01  0.95330000E-01
  0.19623852E+00  0.78156325E-01  0.52088441E+00
  0.33333000E+00  0.16667000E+00  0.17032000E+00
  0.41994755E+00  0.86960231E-01  0.32183187E+00
  0.32584457E+00  0.18266615E+00  0.39820062E+00
  0.25000000E+00  0.00000000E+00  0.24530000E+00
  0.41667000E+00  0.83330000E-01  0.95330000E-01
  0.58333000E+00  0.16667000E+00  0.17032000E+00
  0.66428346E+00  0.85649139E-01  0.32135000E+00
  0.59363930E+00  0.17333638E+00  0.39514873E+00
  0.50000000E+00  0.00000000E+00  0.24530000E+00
  0.66667000E+00  0.83330000E-01  0.95330000E-01
  0.74184890E+00  0.99685185E+00  0.48900835E+00
  0.83333000E+00  0.16667000E+00  0.17032000E+00
  0.93083616E+00  0.92131815E-01  0.31972471E+00
  0.84989106E+00  0.18413912E+00  0.38581659E+00
  0.75000000E+00  0.00000000E+00  0.24530000E+00
  0.91667000E+00  0.83330000E-01  0.95330000E-01
  0.83330000E-01  0.41667000E+00  0.17032000E+00
  0.16138688E+00  0.33037677E+00  0.32218373E+00
  0.67345389E-01  0.40939038E+00  0.38793701E+00
  0.00000000E+00  0.25000000E+00  0.24530000E+00
  0.16667000E+00  0.33333000E+00  0.95330000E-01
  0.33333000E+00  0.41667000E+00  0.17032000E+00
  0.41087184E+00  0.32534264E+00  0.32675479E+00
  0.31118271E+00  0.41070604E+00  0.39087476E+00
  0.25000000E+00  0.25000000E+00  0.24530000E+00
  0.41667000E+00  0.33333000E+00  0.95330000E-01
  0.48424383E+00  0.28282566E+00  0.48394493E+00
  0.58333000E+00  0.41667000E+00  0.17032000E+00
  0.67906603E+00  0.34723987E+00  0.32097128E+00
  0.62187112E+00  0.43786308E+00  0.39115397E+00
  0.50000000E+00  0.25000000E+00  0.24530000E+00
  0.66667000E+00  0.33333000E+00  0.95330000E-01
  0.83333000E+00  0.41667000E+00  0.17032000E+00
  0.91206848E+00  0.34049724E+00  0.32850874E+00
  0.83082428E+00  0.41200088E+00  0.39835573E+00
  0.75000000E+00  0.25000000E+00  0.24530000E+00
  0.91667000E+00  0.33333000E+00  0.95330000E-01
  0.83330000E-01  0.66667000E+00  0.17032000E+00
  0.16328873E+00  0.58718302E+00  0.32500965E+00
  0.77861835E-01  0.66201338E+00  0.39915080E+00
  0.00000000E+00  0.50000000E+00  0.24530000E+00
  0.16667000E+00  0.58333000E+00  0.95330000E-01
 -0.38004100E+01  0.17862242E+00  0.12311013E+01
  0.33333000E+00  0.66667000E+00  0.17032000E+00
  0.39908774E+00  0.58037958E+00  0.31909381E+00
  0.31528387E+00  0.64971465E+00  0.40842159E+00
  0.25000000E+00  0.50000000E+00  0.24530000E+00
  0.41667000E+00  0.58333000E+00  0.95330000E-01
  0.58333000E+00  0.66667000E+00  0.17032000E+00
  0.67366416E+00  0.56692783E+00  0.32299830E+00
  0.57681137E+00  0.66162327E+00  0.38519520E+00
  0.50000000E+00  0.50000000E+00  0.24530000E+00
  0.66667000E+00  0.58333000E+00  0.95330000E-01
  0.66849193E+00  0.55892150E+00  0.51468609E+00
  0.83333000E+00  0.66667000E+00  0.17032000E+00
  0.91065960E+00  0.56734501E+00  0.32906038E+00
  0.83531892E+00  0.64592685E+00  0.39127287E+00
  0.75000000E+00  0.50000000E+00  0.24530000E+00
  0.91667000E+00  0.58333000E+00  0.95330000E-01
  0.83330000E-01  0.91667000E+00  0.17032000E+00
  0.15942231E+00  0.82833382E+00  0.31548507E+00
  0.83456112E-01  0.92214283E+00  0.39439315E+00
  0.00000000E+00  0.75000000E+00  0.24530000E+00
  0.16667000E+00  0.83333000E+00  0.95330000E-01
  0.33333000E+00  0.91667000E+00  0.17032000E+00
  0.42955208E+00  0.84070485E+00  0.32532528E+00
  0.33323791E+00  0.91916418E+00  0.38462894E+00
  0.25000000E+00  0.75000000E+00  0.24530000E+00
  0.41667000E+00  0.83333000E+00  0.95330000E-01
  0.49236134E+00  0.76333525E+00  0.47048187E+00
  0.58333000E+00  0.91667000E+00  0.17032000E+00
  0.66796939E+00  0.84515098E+00  0.31677442E+00
  0.61833217E+00  0.93537453E+00  0.38353827E+00
  0.50000000E+00  0.75000000E+00  0.24530000E+00
  0.66667000E+00  0.83333000E+00  0.95330000E-01
  0.83333000E+00  0.91667000E+00  0.17032000E+00
  0.93108701E+00  0.84553211E+00  0.32262452E+00
  0.86194907E+00  0.93690328E+00  0.39870247E+00
  0.75000000E+00  0.75000000E+00  0.24530000E+00
  0.91667000E+00  0.83333000E+00  0.95330000E-01
  0.42181388E+00  0.49738224E+00  0.46036508E+00
  0.26423701E+00  0.75610909E+00  0.47714022E+00
  0.45099908E+00  0.91564008E+00  0.47009079E+00
  0.51289827E+00  0.33385070E+00  0.65887097E+00
  0.68516072E+00  0.95237168E+00  0.84174267E+00
  0.55790419E+00  0.90423628E+00  0.58401178E+00
  0.13770670E+00  0.80234743E+00  0.67745736E+00
  0.37140437E+00  0.53801571E+00  0.48265051E+00
  0.67561654E+00  0.85764442E+00  0.48962564E+00
  0.27075956E+00  0.31971066E+00  0.45621273E+00
  0.61142679E+00  0.54995918E+00  0.22032376E+01
  0.45637845E+00  0.94103899E+00  0.41975159E+00
  0.67095754E+00  0.42501859E+00  0.75809614E+00
  0.79730174E+00  0.33067395E+00  0.60905227E+00
  0.63812627E+00  0.39976181E+00  0.75692075E+00
  0.48392592E+00  0.82663913E+00  0.77387776E+00
  0.30661903E+00  0.59761445E+00  0.76783645E+00
  0.45460474E+00  0.67246737E+00  0.75207750E+00
  0.45366425E-01  0.15267747E+00  0.88853398E+00
  0.53067435E+00  0.50666232E+00  0.57484371E+00
  0.55995079E+00  0.34904376E+00  0.53412003E+00
  0.25493608E+00  0.51206773E+00  0.63104513E+00
  0.50592371E+00  0.46134829E+00  0.59756979E+00
  0.58711187E+00  0.27974851E+00  0.57708920E+00
  0.54716323E+00  0.12068276E+01  0.82002934E+00
  0.62729619E+00  0.12505275E+00  0.50261967E+00
  0.88431754E-01  0.19758712E+00  0.78041179E+00
  0.18665149E+00  0.11764409E+00  0.62160466E+00
  0.41870177E+00  0.34585922E+00  0.95707232E+00
  0.25388950E+00  0.93548988E+00  0.64663162E+00
  0.13292289E+00  0.76724214E+00  0.58663033E+00
  0.57730663E+00  0.80489316E+00  0.73749458E+00
  0.79928772E+00  0.69446352E+00  0.87290826E+00
  0.51686634E+00  0.74236659E-01  0.70645273E+00
  0.12667544E+00  0.11824946E+00  0.15697511E+01
  0.95567259E+00  0.61699046E+00  0.10800354E+00
  0.63699962E+00  0.55078524E+00  0.24553437E+00
 -0.41298794E-01  0.15453582E+00  0.25647122E+00
  0.55810712E-01  0.72873610E+00  0.28349423E+00
  0.59535177E+00  0.46824159E+00  0.83617494E+00
  0.38574453E+00  0.72220069E+00  0.97989178E+00
  0.58972297E-01  0.64446483E+00  0.70710208E+00
  0.35493754E+00  0.89142081E+00  0.51322421E+00
  0.77451461E+00  0.11054693E+00  0.78904783E+00
  0.11834312E+00  0.97569912E+00  0.76198112E+00
  0.57796617E+00  0.66521907E+00  0.74151937E+00
  0.58660911E+00  0.99797891E+00  0.48084092E+00
  0.68165791E+00  0.86143612E+00  0.98172210E+00
  0.77670262E+02  0.44271922E+01 -0.26308144E+02
 -0.73061495E+01 -0.42974782E+01  0.12218077E+00
  0.11271753E+00  0.92397785E+00  0.84887997E+00
  0.27257581E+00  0.72938521E+00  0.18464124E+00
 -0.46254602E+01 -0.71688246E+01 -0.18724054E+01
  0.51723361E+00  0.51200414E+00  0.32337191E+00
  0.28788230E+01 -0.71001741E+01  0.15504647E+01
  0.70313433E+00  0.78395341E+00  0.98506648E+00
  0.36525776E+00  0.41720282E+00  0.31735681E+00
  0.10534291E+02 -0.21678990E+02 -0.16967054E+02
  0.39002962E+00  0.54710521E+00  0.13842042E+00
  0.45589964E+01  0.18641444E+01  0.81393979E+00
  0.17728369E+00  0.71642208E+00  0.98266714E+00
  0.22341224E+00  0.71944691E+00  0.93213921E-01
  0.54707418E+00  0.55936311E+00  0.10498413E+00
  0.62086356E+00  0.84993662E+00  0.75397541E+00
  0.43923884E+00  0.55704509E+00  0.35483343E+00
  0.42434769E+00  0.61005462E+00  0.86497840E+00
  0.49442263E+00  0.71714866E+00  0.83653330E+00
  0.64231296E+00 -0.43145109E+00  0.93682414E+00
  0.52485592E+00  0.25247401E+00  0.37510441E+00
  0.32185492E+00  0.65318865E+00  0.26379670E+00
  0.39500153E+00  0.16229470E+01  0.14340610E+00
  0.57325894E+00  0.50783464E+00  0.50437124E+00
 -0.15635589E-02  0.21153703E-02  0.49944843E-04
  0.00000000E+00  0.00000000E+00  0.00000000E+00
 -0.11400460E-02 -0.10879494E-03 -0.54401626E-03
  0.00000000E+00  0.00000000E+00  0.00000000E+00
  0.30177724E-02  0.23678751E-04 -0.12150999E-02
  0.00000000E+00  0.00000000E+00  0.00000000E+00
  0.43502209E-03 -0.31952209E-02 -0.58143220E-04
  0.00000000E+00  0.00000000E+00  0.00000000E+00
 -0.28829375E-02 -0.23059361E-02 -0.31020991E-02
  0.00000000E+00  0.00000000E+00  0.00000000E+00
  0.32666810E-04 -0.11451375E-02 -0.29636845E-02
  0.00000000E+00  0.00000000E+00  0.00000000E+00
  0.85804711E-03 -0.13003773E-02 -0.18119551E-02
  0.00000000E+00  0.00000000E+00  0.00000000E+00
  0.23240205E-02 -0.17171363E-02 -0.42896490E-03
  0.00000000E+00  0.00000000E+00  0.00000000E+00
  0.70304057E-03  0.60149274E-03 -0.27724538E-03
  0.00000000E+00  0.00000000E+00  0.00000000E+00
 -0.16366907E-02 -0.31354693E-02 -0.87288605E-03
  0.00000000E+00  0.00000000E+00  0.00000000E+00
 -0.67363743E-03 -0.48686558E-03 -0.51284523E-03
  0.00000000E+00  0.00000000E+00  0.00000000E+00
 -0.11561893E-02  0.86542495E-03  0.88688495E-03
  0.00000000E+00  0.00000000E+00  0.00000000E+00
 -0.86862692E-03 -0.14663851E-02 -0.59974633E-03
  0.00000000E+00  0.00000000E+00  0.00000000E+00
 -0.58797525E-03 -0.50328334E-03  0.11112030E-02
  0.00000000E+00  0.00000000E+00  0.00000000E+00
  0.40543908E-03 -0.17180761E-02 -0.11479223E-02
  0.00000000E+00  0.00000000E+00  0.00000000E+00
 -0.95679256E-04  0.10588061E-02  0.49457095E-04
  0.00000000E+00  0.00000000E+00  0.00000000E+00
 -0.97769758E-03 -0.64534571E-02 -0.13993924E-02
 -0.63111769E-02 -0.53546832E-02 -0.12890253E-01
  0.21761957E-01  0.16420610E-01  0.37932447E-03
 -0.62035853E-01  0.93072056E-02 -0.11398500E+00
  0.00000000E+00  0.00000000E+00  0.00000000E+00
 -0.36582010E-02  0.11027175E-02  0.16167028E-02
  0.12515875E-02  0.54316193E-02  0.11996162E-02
  0.00000000E+00  0.00000000E+00  0.00000000E+00
  0.00000000E+00  0.00000000E+00  0.00000000E+00
 -0.64957414E-02  0.45981625E-02  0.85972063E-02
  0.00000000E+00  0.00000000E+00  0.00000000E+00
  0.14687751E-02  0.70115555E-04  0.33593422E-03
  0.42728704E-03  0.12443076E-01 -0.35968830E-03
  0.00000000E+00  0.00000000E+00  0.00000000E+00
  0.00000000E+00  0.00000000E+00  0.00000000E+00
  0.00000000E+00  0.00000000E+00  0.00000000E+00
 -0.14832701E-02  0.16995695E-02  0.59500212E-03
  0.38646479E-02  0.37781925E-02  0.81936326E-03
  0.00000000E+00  0.00000000E+00  0.00000000E+00
  0.00000000E+00  0.00000000E+00  0.00000000E+00
  0.31549449E-01 -0.23009073E-01 -0.82658238E-02
  0.00000000E+00  0.00000000E+00  0.00000000E+00
  0.62630786E-02  0.40309073E-02  0.57356460E-04
  0.70555295E-02  0.81145576E-02 -0.44517035E-02
  0.00000000E+00  0.00000000E+00  0.00000000E+00
  0.00000000E+00  0.00000000E+00  0.00000000E+00
  0.00000000E+00  0.00000000E+00  0.00000000E+00
 -0.73156088E-03 -0.91616455E-04  0.14918659E-02
 -0.68773056E-02 -0.24698118E-02 -0.34264968E-02
  0.00000000E+00  0.00000000E+00  0.00000000E+00
  0.00000000E+00  0.00000000E+00  0.00000000E+00
  0.00000000E+00  0.00000000E+00  0.00000000E+00
 -0.46990789E-02 -0.35586821E-02  0.90739531E-03
 -0.81236433E-02 -0.31669813E-02  0.10423783E-02
  0.00000000E+00  0.00000000E+00  0.00000000E+00
  0.00000000E+00  0.00000000E+00  0.00000000E+00
  0.40719137E-02  0.41078280E-02  0.61824648E-02
  0.00000000E+00  0.00000000E+00  0.00000000E+00
  0.62880168E-02  0.59949360E-02 -0.42436042E-03
  0.13520561E-01  0.52265387E-02 -0.52830170E-02
  0.00000000E+00  0.00000000E+00  0.00000000E+00
  0.00000000E+00  0.00000000E+00  0.00000000E+00
  0.00000000E+00  0.00000000E+00  0.00000000E+00
 -0.20457618E-02  0.37986198E-02  0.44993682E-02
 -0.33878619E-02 -0.32795578E-02  0.20278642E-02
  0.00000000E+00  0.00000000E+00  0.00000000E+00
  0.00000000E+00  0.00000000E+00  0.00000000E+00
  0.00000000E+00  0.00000000E+00  0.00000000E+00
 -0.19406331E-02  0.16715096E-02  0.23548230E-02
 -0.25090825E-02 -0.23683090E-02  0.16803981E-02
  0.00000000E+00  0.00000000E+00  0.00000000E+00
  0.00000000E+00  0.00000000E+00  0.00000000E+00
 -0.25030800E+01 -0.19678379E+00  0.86162567E+00
  0.00000000E+00  0.00000000E+00  0.00000000E+00
 -0.86311308E-02 -0.32602120E-02 -0.11530943E-02
 -0.40230653E-02 -0.33576755E-02  0.37607932E-02
  0.00000000E+00  0.00000000E+00  0.00000000E+00
  0.00000000E+00  0.00000000E+00  0.00000000E+00
  0.00000000E+00  0.00000000E+00  0.00000000E+00
  0.33370822E-02 -0.74010826E-02  0.13541516E-02
 -0.42993169E-02 -0.19383625E-02 -0.41324004E-02
  0.00000000E+00  0.00000000E+00  0.00000000E+00
  0.00000000E+00  0.00000000E+00  0.00000000E+00
 -0.33540329E-02  0.64007494E-02  0.25830450E-02
  0.00000000E+00  0.00000000E+00  0.00000000E+00
 -0.38451993E-02 -0.83824970E-02  0.47201912E-02
 -0.65538787E-04 -0.10891575E-01 -0.18035661E-02
  0.00000000E+00  0.00000000E+00  0.00000000E+00
  0.00000000E+00  0.00000000E+00  0.00000000E+00
  0.00000000E+00  0.00000000E+00  0.00000000E+00
 -0.17288457E-02 -0.11830910E-02 -0.18524628E-02
  0.13080562E-02  0.40164170E-02 -0.58426272E-04
  0.00000000E+00  0.00000000E+00  0.00000000E+00
  0.00000000E+00  0.00000000E+00  0.00000000E+00
  0.00000000E+00  0.00000000E+00  0.00000000E+00
  0.51860412E-02  0.47224250E-02  0.18263862E-03
  0.26589571E-02  0.85208889E-03 -0.19555306E-02
  0.00000000E+00  0.00000000E+00  0.00000000E+00
  0.00000000E+00  0.00000000E+00  0.00000000E+00
  0.83156722E-02 -0.57073754E-02 -0.50406561E-03
  0.00000000E+00  0.00000000E+00  0.00000000E+00
  0.61969700E-03  0.51654890E-02 -0.24677916E-02
  0.12226086E-01  0.46622642E-02 -0.81458646E-02
  0.00000000E+00  0.00000000E+00  0.00000000E+00
  0.00000000E+00  0.00000000E+00  0.00000000E+00
  0.00000000E+00  0.00000000E+00  0.00000000E+00
  0.75935069E-02  0.64410556E-02  0.15722623E-02
  0.12189534E-01  0.92266390E-02  0.22062347E-02
  0.00000000E+00  0.00000000E+00  0.00000000E+00
  0.00000000E+00  0.00000000E+00  0.00000000E+00
 -0.31948061E-01  0.22796119E-01 -0.77324591E-02
 -0.16681494E-01 -0.33304548E-02  0.60110010E-04
 -0.18190462E-01 -0.17549960E-01 -0.34996041E-02
 -0.10275864E-01 -0.24969651E-01  0.39935484E-01
  0.15951036E+00  0.11969584E+00  0.13126133E+00
  0.86720942E-02  0.95081422E-02  0.22008918E-02
  0.23998835E+00  0.21596872E+00  0.92158682E-01
 -0.56478164E-02 -0.27617146E-01 -0.42047445E-02
  0.92232705E-02 -0.39927885E-02 -0.33217833E-03
 -0.14370221E-01  0.29265332E-01 -0.11223635E-01
  0.62303340E+00  0.17260459E+00  0.13117138E+01
  0.34539224E-01 -0.76085505E-01 -0.33959206E-01
  0.26193770E-01  0.13014296E-01  0.70680690E-02
  0.14225871E-01  0.57719760E-02 -0.34178867E-01
 -0.13955686E+00 -0.74279095E-01  0.64803768E-02
  0.20867296E+00  0.10182456E+00  0.14958882E-01
 -0.57304838E-02 -0.25042773E-01  0.89632274E-02
  0.18222372E-01  0.58363685E-01  0.30963751E-01
  0.12306321E+00  0.16836873E+00  0.75626992E-01
  0.36397177E-01  0.17201160E-01 -0.21833146E-01
  0.77740396E-01  0.41716878E-01 -0.62594983E-01
  0.29358040E-01  0.43853864E-01 -0.10237433E-01
 -0.10545815E+00 -0.12186586E+00 -0.46290104E-01
  0.39659371E-02  0.97364255E-01  0.27084598E-01
 -0.37666838E+00  0.74660380E+00  0.58035967E+00
 -0.13008191E+00 -0.57688623E-01 -0.21985165E-01
 -0.11754123E-01  0.25958558E-01  0.18225897E-01
 -0.37439253E-01 -0.64795646E-03 -0.17002672E-01
  0.40408863E-02  0.25424610E-01  0.10655616E+00
  0.61547522E-02 -0.57750604E-02 -0.24441921E-02
  0.22296444E-01  0.34951071E-01 -0.14984834E-01
 -0.15866844E-02 -0.17913419E-01 -0.34467712E-01
  0.10179886E+00  0.13245676E+00  0.48989132E-01
 -0.87106831E-01 -0.18191667E+00 -0.20098636E-01
 -0.30964728E+00 -0.11572527E+00  0.93068555E+00
  0.57156297E-01  0.12938523E+00 -0.28604823E+00
 -0.12868519E+00 -0.14052380E-01 -0.26469782E+00
 -0.15155294E+01 -0.12164371E+01 -0.24508939E+00
  0.50605036E+00  0.53758805E+00  0.25428212E+00
  0.22812589E+00 -0.96919204E-01  0.44762472E-01
  0.45267265E-01  0.21965344E-01  0.99505891E-01
 -0.16581385E+00 -0.21157583E-01 -0.22748959E-01
 -0.20171229E-01  0.15255540E+00 -0.10394790E+00
 -0.35807769E+00 -0.24214153E+00  0.48103913E-01
  0.17099156E+00  0.64594559E-01 -0.31344389E-02
 -0.14689192E+00 -0.94900464E-01  0.77468310E-03
 -0.42419544E+00 -0.25242055E+00 -0.84319539E-01
 -0.42436604E+00 -0.32495194E+00  0.18026605E+00
  0.39144331E+02  0.25655061E+01 -0.13999212E+02
 -0.43915647E+01 -0.28010891E+01 -0.76990962E+00
 -0.30311237E-01 -0.26547608E+00  0.83194987E-01
 -0.49807709E+00 -0.36703240E+00  0.26521562E+00
 -0.31597101E+01 -0.44522373E+01 -0.17967627E+01
 -0.63605819E+00 -0.61607793E+00 -0.18473404E+00
  0.16612565E+01 -0.41078820E+01  0.99828733E+00
  0.25717163E-01 -0.17007830E+00  0.22972824E+00
  0.43818880E-01  0.33650641E+00 -0.18646160E+00
  0.55806407E+01 -0.11715850E+02 -0.93145268E+01
 -0.23728019E+00 -0.36194740E+00 -0.21956479E+00
  0.22995082E+01  0.12923122E+01  0.63233489E+00
 -0.45589316E+00 -0.22990896E+00 -0.39613143E+00
  0.51947612E+00 -0.23265654E+00  0.17328196E+00
 -0.34578791E+00 -0.29507344E+00  0.20920207E+00
  0.64341178E+00  0.34595331E+00  0.47837705E-01
  0.25749418E-01  0.11573255E+00  0.28995172E+00
 -0.52939115E+00 -0.36201769E+00  0.59164200E-01
  0.13786132E+00 -0.13023067E+00  0.77021648E-01
 -0.33588852E+00 -0.70879055E+00  0.14130707E+00
  0.22969796E+00 -0.23771800E+00 -0.13623279E+00
 -0.41949754E+00 -0.41615676E-01  0.32225835E+00
 -0.81299235E-01  0.87582850E+00  0.15300305E+00
 -0.39865530E-01 -0.68598768E+00  0.34762562E+00
  0.00000000E+00  0.00000000E+00  0.00000000E+00
  0.00000000E+00  0.00000000E+00  0.00000000E+00
  0.00000000E+00  0.00000000E+00  0.00000000E+00
  0.00000000E+00  0.00000000E+00  0.00000000E+00
  0.00000000E+00  0.00000000E+00  0.00000000E+00
  0.00000000E+00  0.00000000E+00  0.00000000E+00
  0.00000000E+00  0.00000000E+00  0.00000000E+00
  0.00000000E+00  0.00000000E+00  0.00000000E+00
  0.00000000E+00  0.00000000E+00  0.00000000E+00
  0.00000000E+00  0.00000000E+00  0.00000000E+00
  0.00000000E+00  0.00000000E+00  0.00000000E+00
  0.00000000E+00  0.00000000E+00  0.00000000E+00
  0.00000000E+00  0.00000000E+00  0.00000000E+00
  0.00000000E+00  0.00000000E+00  0.00000000E+00
  0.00000000E+00  0.00000000E+00  0.00000000E+00
  0.00000000E+00  0.00000000E+00  0.00000000E+00
  0.00000000E+00  0.00000000E+00  0.00000000E+00
  0.00000000E+00  0.00000000E+00  0.00000000E+00
  0.00000000E+00  0.00000000E+00  0.00000000E+00
  0.00000000E+00  0.00000000E+00  0.00000000E+00
  0.00000000E+00  0.00000000E+00  0.00000000E+00
  0.00000000E+00  0.00000000E+00  0.00000000E+00
  0.00000000E+00  0.00000000E+00  0.00000000E+00
  0.00000000E+00  0.00000000E+00  0.00000000E+00
  0.00000000E+00  0.00000000E+00  0.00000000E+00
  0.00000000E+00  0.00000000E+00  0.00000000E+00
  0.00000000E+00  0.00000000E+00  0.00000000E+00
  0.00000000E+00  0.00000000E+00  0.00000000E+00
  0.00000000E+00  0.00000000E+00  0.00000000E+00
  0.00000000E+00  0.00000000E+00  0.00000000E+00
  0.00000000E+00  0.00000000E+00  0.00000000E+00
  0.00000000E+00  0.00000000E+00  0.00000000E+00
  0.00000000E+00  0.00000000E+00  0.00000000E+00
  0.00000000E+00  0.00000000E+00  0.00000000E+00
  0.00000000E+00  0.00000000E+00  0.00000000E+00
  0.00000000E+00  0.00000000E+00  0.00000000E+00
  0.00000000E+00  0.00000000E+00  0.00000000E+00
  0.00000000E+00  0.00000000E+00  0.00000000E+00
  0.00000000E+00  0.00000000E+00  0.00000000E+00
  0.00000000E+00  0.00000000E+00  0.00000000E+00
  0.00000000E+00  0.00000000E+00  0.00000000E+00
  0.00000000E+00  0.00000000E+00  0.00000000E+00
  0.00000000E+00  0.00000000E+00  0.00000000E+00
  0.00000000E+00  0.00000000E+00  0.00000000E+00
  0.00000000E+00  0.00000000E+00  0.00000000E+00
  0.00000000E+00  0.00000000E+00  0.00000000E+00
  0.00000000E+00  0.00000000E+00  0.00000000E+00
  0.00000000E+00  0.00000000E+00  0.00000000E+00
  0.00000000E+00  0.00000000E+00  0.00000000E+00
  0.00000000E+00  0.00000000E+00  0.00000000E+00
  0.00000000E+00  0.00000000E+00  0.00000000E+00
  0.00000000E+00  0.00000000E+00  0.00000000E+00
  0.00000000E+00  0.00000000E+00  0.00000000E+00
  0.00000000E+00  0.00000000E+00  0.00000000E+00
  0.00000000E+00  0.00000000E+00  0.00000000E+00
  0.00000000E+00  0.00000000E+00  0.00000000E+00
  0.00000000E+00  0.00000000E+00  0.00000000E+00
  0.00000000E+00  0.00000000E+00  0.00000000E+00
  0.00000000E+00  0.00000000E+00  0.00000000E+00
  0.00000000E+00  0.00000000E+00  0.00000000E+00
  0.00000000E+00  0.00000000E+00  0.00000000E+00
  0.00000000E+00  0.00000000E+00  0.00000000E+00
  0.00000000E+00  0.00000000E+00  0.00000000E+00
  0.00000000E+00  0.00000000E+00  0.00000000E+00
  0.00000000E+00  0.00000000E+00  0.00000000E+00
  0.00000000E+00  0.00000000E+00  0.00000000E+00
  0.00000000E+00  0.00000000E+00  0.00000000E+00
  0.00000000E+00  0.00000000E+00  0.00000000E+00
  0.00000000E+00  0.00000000E+00  0.00000000E+00
  0.00000000E+00  0.00000000E+00  0.00000000E+00
  0.00000000E+00  0.00000000E+00  0.00000000E+00
  0.00000000E+00  0.00000000E+00  0.00000000E+00
  0.00000000E+00  0.00000000E+00  0.00000000E+00
  0.00000000E+00  0.00000000E+00  0.00000000E+00
  0.00000000E+00  0.00000000E+00  0.00000000E+00
  0.00000000E+00  0.00000000E+00  0.00000000E+00
  0.00000000E+00  0.00000000E+00  0.00000000E+00
  0.00000000E+00  0.00000000E+00  0.00000000E+00
  0.00000000E+00  0.00000000E+00  0.00000000E+00
  0.00000000E+00  0.00000000E+00  0.00000000E+00
  0.00000000E+00  0.00000000E+00  0.00000000E+00
  0.00000000E+00  0.00000000E+00  0.00000000E+00
  0.00000000E+00  0.00000000E+00  0.00000000E+00
  0.00000000E+00  0.00000000E+00  0.00000000E+00
  0.00000000E+00  0.00000000E+00  0.00000000E+00
  0.00000000E+00  0.00000000E+00  0.00000000E+00
  0.00000000E+00  0.00000000E+00  0.00000000E+00
  0.00000000E+00  0.00000000E+00  0.00000000E+00
  0.00000000E+00  0.00000000E+00  0.00000000E+00
  0.00000000E+00  0.00000000E+00  0.00000000E+00
  0.00000000E+00  0.00000000E+00  0.00000000E+00
  0.00000000E+00  0.00000000E+00  0.00000000E+00
  0.00000000E+00  0.00000000E+00  0.00000000E+00
  0.00000000E+00  0.00000000E+00  0.00000000E+00
  0.00000000E+00  0.00000000E+00  0.00000000E+00
  0.00000000E+00  0.00000000E+00  0.00000000E+00
  0.00000000E+00  0.00000000E+00  0.00000000E+00
  0.00000000E+00  0.00000000E+00  0.00000000E+00
  0.00000000E+00  0.00000000E+00  0.00000000E+00
  0.00000000E+00  0.00000000E+00  0.00000000E+00
  0.00000000E+00  0.00000000E+00  0.00000000E+00
  0.00000000E+00  0.00000000E+00  0.00000000E+00
  0.00000000E+00  0.00000000E+00  0.00000000E+00
  0.00000000E+00  0.00000000E+00  0.00000000E+00
  0.00000000E+00  0.00000000E+00  0.00000000E+00
  0.00000000E+00  0.00000000E+00  0.00000000E+00
  0.00000000E+00  0.00000000E+00  0.00000000E+00
  0.00000000E+00  0.00000000E+00  0.00000000E+00
  0.00000000E+00  0.00000000E+00  0.00000000E+00
  0.00000000E+00  0.00000000E+00  0.00000000E+00
  0.00000000E+00  0.00000000E+00  0.00000000E+00
  0.00000000E+00  0.00000000E+00  0.00000000E+00
  0.00000000E+00  0.00000000E+00  0.00000000E+00
  0.00000000E+00  0.00000000E+00  0.00000000E+00
  0.00000000E+00  0.00000000E+00  0.00000000E+00
  0.00000000E+00  0.00000000E+00  0.00000000E+00
  0.00000000E+00  0.00000000E+00  0.00000000E+00
  0.00000000E+00  0.00000000E+00  0.00000000E+00
  0.00000000E+00  0.00000000E+00  0.00000000E+00
  0.00000000E+00  0.00000000E+00  0.00000000E+00
  0.00000000E+00  0.00000000E+00  0.00000000E+00
  0.00000000E+00  0.00000000E+00  0.00000000E+00
  0.00000000E+00  0.00000000E+00  0.00000000E+00
  0.00000000E+00  0.00000000E+00  0.00000000E+00
  0.00000000E+00  0.00000000E+00  0.00000000E+00
  0.00000000E+00  0.00000000E+00  0.00000000E+00
  0.00000000E+00  0.00000000E+00  0.00000000E+00
  0.00000000E+00  0.00000000E+00  0.00000000E+00
  0.00000000E+00  0.00000000E+00  0.00000000E+00
  0.00000000E+00  0.00000000E+00  0.00000000E+00
  0.00000000E+00  0.00000000E+00  0.00000000E+00
  0.00000000E+00  0.00000000E+00  0.00000000E+00
  0.00000000E+00  0.00000000E+00  0.00000000E+00
  0.00000000E+00  0.00000000E+00  0.00000000E+00
  0.00000000E+00  0.00000000E+00  0.00000000E+00
  0.00000000E+00  0.00000000E+00  0.00000000E+00
  0.00000000E+00  0.00000000E+00  0.00000000E+00
  0.00000000E+00  0.00000000E+00  0.00000000E+00
  0.00000000E+00  0.00000000E+00  0.00000000E+00
  0.00000000E+00  0.00000000E+00  0.00000000E+00
  0.00000000E+00  0.00000000E+00  0.00000000E+00
  0.00000000E+00  0.00000000E+00  0.00000000E+00
  0.00000000E+00  0.00000000E+00  0.00000000E+00
  0.00000000E+00  0.00000000E+00  0.00000000E+00
  0.00000000E+00  0.00000000E+00  0.00000000E+00
  0.00000000E+00  0.00000000E+00  0.00000000E+00
  0.00000000E+00  0.00000000E+00  0.00000000E+00
  0.00000000E+00  0.00000000E+00  0.00000000E+00
  0.00000000E+00  0.00000000E+00  0.00000000E+00
  0.00000000E+00  0.00000000E+00  0.00000000E+00
  0.00000000E+00  0.00000000E+00  0.00000000E+00
  0.00000000E+00  0.00000000E+00  0.00000000E+00
  0.00000000E+00  0.00000000E+00  0.00000000E+00
  0.00000000E+00  0.00000000E+00  0.00000000E+00
  0.00000000E+00  0.00000000E+00  0.00000000E+00
  0.00000000E+00  0.00000000E+00  0.00000000E+00
  0.00000000E+00  0.00000000E+00  0.00000000E+00
  0.00000000E+00  0.00000000E+00  0.00000000E+00
  0.00000000E+00  0.00000000E+00  0.00000000E+00
  0.00000000E+00  0.00000000E+00  0.00000000E+00
  0.00000000E+00  0.00000000E+00  0.00000000E+00
  0.00000000E+00  0.00000000E+00  0.00000000E+00
  0.00000000E+00  0.00000000E+00  0.00000000E+00
  0.00000000E+00  0.00000000E+00  0.00000000E+00
  0.00000000E+00  0.00000000E+00  0.00000000E+00
  0.00000000E+00  0.00000000E+00  0.00000000E+00
  0.00000000E+00  0.00000000E+00  0.00000000E+00
  0.00000000E+00  0.00000000E+00  0.00000000E+00
  0.00000000E+00  0.00000000E+00  0.00000000E+00
  0.00000000E+00  0.00000000E+00  0.00000000E+00
  0.00000000E+00  0.00000000E+00  0.00000000E+00
  0.00000000E+00  0.00000000E+00  0.00000000E+00
  0.00000000E+00  0.00000000E+00  0.00000000E+00
  0.00000000E+00  0.00000000E+00  0.00000000E+00
  0.00000000E+00  0.00000000E+00  0.00000000E+00
  0.00000000E+00  0.00000000E+00  0.00000000E+00
  0.00000000E+00  0.00000000E+00  0.00000000E+00
  0.00000000E+00  0.00000000E+00  0.00000000E+00
  0.00000000E+00  0.00000000E+00  0.00000000E+00
  0.00000000E+00  0.00000000E+00  0.00000000E+00
  0.00000000E+00  0.00000000E+00  0.00000000E+00
  0.00000000E+00  0.00000000E+00  0.00000000E+00
  0.00000000E+00  0.00000000E+00  0.00000000E+00
  0.00000000E+00  0.00000000E+00  0.00000000E+00
  0.00000000E+00  0.00000000E+00  0.00000000E+00
  0.00000000E+00  0.00000000E+00  0.00000000E+00
  0.00000000E+00  0.00000000E+00  0.00000000E+00
  0.00000000E+00  0.00000000E+00  0.00000000E+00
  0.00000000E+00  0.00000000E+00  0.00000000E+00
  0.00000000E+00  0.00000000E+00  0.00000000E+00
  0.00000000E+00  0.00000000E+00  0.00000000E+00
  0.00000000E+00  0.00000000E+00  0.00000000E+00
  0.00000000E+00  0.00000000E+00  0.00000000E+00
  0.00000000E+00  0.00000000E+00  0.00000000E+00
