 194 194   0   0
  0.2247007E+02  0.1546430E-08  0.1546430E-08  0.2104820E-08  0.2000000E-13
   300.000000000000     
  CAR 
 unknown system                          
      3.05897329    -37.18565793  301     -1.19683660      1.00000000
    -37.186  0.0000E+00  0.0000E+00  0.0000E+00  0.0000E+00
    -37.052  0.0000E+00  0.0000E+00  0.0000E+00  0.0000E+00
    -36.917  0.0000E+00  0.0000E+00  0.0000E+00  0.0000E+00
    -36.783  0.0000E+00  0.0000E+00  0.0000E+00  0.0000E+00
    -36.649  0.0000E+00  0.0000E+00  0.0000E+00  0.0000E+00
    -36.515  0.0000E+00  0.0000E+00  0.0000E+00  0.0000E+00
    -36.381  0.0000E+00  0.0000E+00  0.0000E+00  0.0000E+00
    -36.247  0.0000E+00  0.0000E+00  0.0000E+00  0.0000E+00
    -36.112  0.0000E+00  0.0000E+00  0.0000E+00  0.0000E+00
    -35.978  0.0000E+00  0.0000E+00  0.0000E+00  0.0000E+00
    -35.844  0.0000E+00  0.0000E+00  0.0000E+00  0.0000E+00
    -35.710  0.0000E+00  0.0000E+00  0.0000E+00  0.0000E+00
    -35.576  0.1991E-08  0.1913E-08  0.2671E-09  0.2566E-09
    -35.442  0.6159E-01  0.6040E-01  0.8262E-02  0.8103E-02
    -35.308  0.2324E+02  0.2331E+02  0.3126E+01  0.3135E+01
    -35.173  0.1112E+03  0.1281E+03  0.1804E+02  0.2032E+02
    -35.039  0.1025E+03  0.8674E+02  0.3179E+02  0.3196E+02
    -34.905  0.1544E+01  0.3212E+00  0.3200E+02  0.3200E+02
    -34.771  0.6827E-06  0.1537E-07  0.3200E+02  0.3200E+02
    -34.637  0.0000E+00  0.0000E+00  0.3200E+02  0.3200E+02
    -34.503  0.0000E+00  0.0000E+00  0.3200E+02  0.3200E+02
    -34.369  0.0000E+00  0.0000E+00  0.3200E+02  0.3200E+02
    -34.234  0.0000E+00  0.0000E+00  0.3200E+02  0.3200E+02
    -34.100  0.0000E+00  0.0000E+00  0.3200E+02  0.3200E+02
    -33.966  0.0000E+00  0.0000E+00  0.3200E+02  0.3200E+02
    -33.832  0.0000E+00  0.0000E+00  0.3200E+02  0.3200E+02
    -33.698  0.0000E+00  0.0000E+00  0.3200E+02  0.3200E+02
    -33.564  0.0000E+00  0.0000E+00  0.3200E+02  0.3200E+02
    -33.429  0.0000E+00  0.0000E+00  0.3200E+02  0.3200E+02
    -33.295  0.0000E+00  0.0000E+00  0.3200E+02  0.3200E+02
    -33.161  0.0000E+00  0.0000E+00  0.3200E+02  0.3200E+02
    -33.027  0.0000E+00  0.0000E+00  0.3200E+02  0.3200E+02
    -32.893  0.0000E+00  0.0000E+00  0.3200E+02  0.3200E+02
    -32.759  0.0000E+00  0.0000E+00  0.3200E+02  0.3200E+02
    -32.625  0.0000E+00  0.0000E+00  0.3200E+02  0.3200E+02
    -32.490  0.0000E+00  0.0000E+00  0.3200E+02  0.3200E+02
    -32.356  0.0000E+00  0.0000E+00  0.3200E+02  0.3200E+02
    -32.222  0.0000E+00  0.0000E+00  0.3200E+02  0.3200E+02
    -32.088  0.0000E+00  0.0000E+00  0.3200E+02  0.3200E+02
    -31.954  0.0000E+00  0.0000E+00  0.3200E+02  0.3200E+02
    -31.820  0.0000E+00  0.0000E+00  0.3200E+02  0.3200E+02
    -31.686  0.0000E+00  0.0000E+00  0.3200E+02  0.3200E+02
    -31.551  0.0000E+00  0.0000E+00  0.3200E+02  0.3200E+02
    -31.417  0.0000E+00  0.0000E+00  0.3200E+02  0.3200E+02
    -31.283  0.0000E+00  0.0000E+00  0.3200E+02  0.3200E+02
    -31.149  0.0000E+00  0.0000E+00  0.3200E+02  0.3200E+02
    -31.015  0.0000E+00  0.0000E+00  0.3200E+02  0.3200E+02
    -30.881  0.0000E+00  0.0000E+00  0.3200E+02  0.3200E+02
    -30.747  0.0000E+00  0.0000E+00  0.3200E+02  0.3200E+02
    -30.612  0.0000E+00  0.0000E+00  0.3200E+02  0.3200E+02
    -30.478  0.0000E+00  0.0000E+00  0.3200E+02  0.3200E+02
    -30.344  0.0000E+00  0.0000E+00  0.3200E+02  0.3200E+02
    -30.210  0.0000E+00  0.0000E+00  0.3200E+02  0.3200E+02
    -30.076  0.0000E+00  0.0000E+00  0.3200E+02  0.3200E+02
    -29.942  0.0000E+00  0.0000E+00  0.3200E+02  0.3200E+02
    -29.807  0.0000E+00  0.0000E+00  0.3200E+02  0.3200E+02
    -29.673  0.0000E+00  0.0000E+00  0.3200E+02  0.3200E+02
    -29.539  0.0000E+00  0.0000E+00  0.3200E+02  0.3200E+02
    -29.405  0.0000E+00  0.0000E+00  0.3200E+02  0.3200E+02
    -29.271  0.0000E+00  0.0000E+00  0.3200E+02  0.3200E+02
    -29.137  0.0000E+00  0.0000E+00  0.3200E+02  0.3200E+02
    -29.003  0.0000E+00  0.0000E+00  0.3200E+02  0.3200E+02
    -28.868  0.0000E+00  0.0000E+00  0.3200E+02  0.3200E+02
    -28.734  0.0000E+00  0.0000E+00  0.3200E+02  0.3200E+02
    -28.600  0.0000E+00  0.0000E+00  0.3200E+02  0.3200E+02
    -28.466  0.0000E+00  0.0000E+00  0.3200E+02  0.3200E+02
    -28.332  0.0000E+00  0.0000E+00  0.3200E+02  0.3200E+02
    -28.198  0.0000E+00  0.0000E+00  0.3200E+02  0.3200E+02
    -28.064  0.0000E+00  0.0000E+00  0.3200E+02  0.3200E+02
    -27.929  0.0000E+00  0.0000E+00  0.3200E+02  0.3200E+02
    -27.795  0.0000E+00  0.0000E+00  0.3200E+02  0.3200E+02
    -27.661  0.0000E+00  0.0000E+00  0.3200E+02  0.3200E+02
    -27.527  0.0000E+00  0.0000E+00  0.3200E+02  0.3200E+02
    -27.393  0.0000E+00  0.0000E+00  0.3200E+02  0.3200E+02
    -27.259  0.0000E+00  0.0000E+00  0.3200E+02  0.3200E+02
    -27.125  0.0000E+00  0.0000E+00  0.3200E+02  0.3200E+02
    -26.990  0.0000E+00  0.0000E+00  0.3200E+02  0.3200E+02
    -26.856  0.0000E+00  0.0000E+00  0.3200E+02  0.3200E+02
    -26.722  0.0000E+00  0.0000E+00  0.3200E+02  0.3200E+02
    -26.588  0.0000E+00  0.0000E+00  0.3200E+02  0.3200E+02
    -26.454  0.0000E+00  0.0000E+00  0.3200E+02  0.3200E+02
    -26.320  0.0000E+00  0.0000E+00  0.3200E+02  0.3200E+02
    -26.185  0.0000E+00  0.0000E+00  0.3200E+02  0.3200E+02
    -26.051  0.0000E+00  0.0000E+00  0.3200E+02  0.3200E+02
    -25.917  0.0000E+00  0.0000E+00  0.3200E+02  0.3200E+02
    -25.783  0.0000E+00  0.0000E+00  0.3200E+02  0.3200E+02
    -25.649  0.0000E+00  0.0000E+00  0.3200E+02  0.3200E+02
    -25.515  0.0000E+00  0.0000E+00  0.3200E+02  0.3200E+02
    -25.381  0.0000E+00  0.0000E+00  0.3200E+02  0.3200E+02
    -25.246  0.0000E+00  0.0000E+00  0.3200E+02  0.3200E+02
    -25.112  0.0000E+00  0.0000E+00  0.3200E+02  0.3200E+02
    -24.978  0.1212E-12  0.1022E-12  0.3200E+02  0.3200E+02
    -24.844  0.5531E-03  0.5060E-03  0.3200E+02  0.3200E+02
    -24.710  0.3839E+01  0.3663E+01  0.3252E+02  0.3249E+02
    -24.576  0.1068E+02  0.6416E+01  0.3395E+02  0.3335E+02
    -24.442  0.2605E+01  0.4839E+01  0.3430E+02  0.3400E+02
    -24.307  0.5237E+01  0.5989E+01  0.3500E+02  0.3480E+02
    -24.173  0.4137E-02  0.1456E+01  0.3500E+02  0.3500E+02
    -24.039  0.6416E-11  0.1220E-04  0.3500E+02  0.3500E+02
    -23.905  0.0000E+00  0.0000E+00  0.3500E+02  0.3500E+02
    -23.771  0.0000E+00  0.0000E+00  0.3500E+02  0.3500E+02
    -23.637  0.0000E+00  0.0000E+00  0.3500E+02  0.3500E+02
    -23.502  0.2640E-12  0.1895E-12  0.3500E+02  0.3500E+02
    -23.368  0.8293E-03  0.6982E-03  0.3500E+02  0.3500E+02
    -23.234  0.4030E+01  0.3901E+01  0.3554E+02  0.3552E+02
    -23.100  0.3423E+01  0.3552E+01  0.3600E+02  0.3600E+02
    -22.966  0.3636E-03  0.4347E-03  0.3600E+02  0.3600E+02
    -22.832  0.1613E-02  0.1405E-02  0.3600E+02  0.3600E+02
    -22.698  0.6019E+01  0.5713E+01  0.3681E+02  0.3677E+02
    -22.563  0.8876E+01  0.9178E+01  0.3800E+02  0.3800E+02
    -22.429  0.1190E-01  0.1643E-01  0.3800E+02  0.3800E+02
    -22.295  0.5632E-10  0.1127E-09  0.3800E+02  0.3800E+02
    -22.161  0.8487E-03  0.7560E-03  0.3800E+02  0.3800E+02
    -22.027  0.4374E+01  0.3961E+01  0.3859E+02  0.3853E+02
    -21.893  0.1121E+02  0.8257E+01  0.4009E+02  0.3964E+02
    -21.759  0.6742E+01  0.1010E+02  0.4099E+02  0.4099E+02
    -21.624  0.3334E+00  0.3700E+00  0.4104E+02  0.4104E+02
    -21.490  0.1910E+02  0.1394E+02  0.4360E+02  0.4291E+02
    -21.356  0.2966E+01  0.1378E+01  0.4400E+02  0.4310E+02
    -21.222  0.6835E-04  0.6674E+01  0.4400E+02  0.4399E+02
    -21.088  0.0000E+00  0.4569E-01  0.4400E+02  0.4400E+02
    -20.954  0.1727E-04  0.5452E-07  0.4400E+02  0.4400E+02
    -20.820  0.1656E+01  0.2715E+00  0.4422E+02  0.4404E+02
    -20.685  0.1253E+02  0.1371E+02  0.4590E+02  0.4588E+02
    -20.551  0.1222E+02  0.4440E+01  0.4754E+02  0.4647E+02
    -20.417  0.3852E+02  0.3516E+02  0.5271E+02  0.5119E+02
    -20.283  0.3439E+02  0.2862E+02  0.5732E+02  0.5503E+02
    -20.149  0.7892E+02  0.5071E+02  0.6791E+02  0.6183E+02
    -20.015  0.7696E+02  0.6199E+02  0.7823E+02  0.7014E+02
    -19.880  0.3621E+02  0.6903E+02  0.8309E+02  0.7940E+02
    -19.746  0.2888E+02  0.3970E+02  0.8697E+02  0.8473E+02
    -19.612  0.7183E+02  0.1629E+02  0.9660E+02  0.8692E+02
    -19.478  0.5208E+02  0.4128E+02  0.1036E+03  0.9245E+02
    -19.344  0.3949E+02  0.2575E+02  0.1089E+03  0.9591E+02
    -19.210  0.4392E+02  0.3491E+02  0.1148E+03  0.1006E+03
    -19.076  0.1954E+02  0.9187E+01  0.1174E+03  0.1018E+03
    -18.941  0.3921E+02  0.5500E+02  0.1227E+03  0.1092E+03
    -18.807  0.4136E+02  0.3924E+02  0.1282E+03  0.1145E+03
    -18.673  0.2359E+02  0.1833E+02  0.1314E+03  0.1169E+03
    -18.539  0.1915E+02  0.3060E+02  0.1339E+03  0.1210E+03
    -18.405  0.1063E+02  0.1464E+02  0.1354E+03  0.1230E+03
    -18.271  0.1469E+02  0.7299E+01  0.1373E+03  0.1240E+03
    -18.137  0.1201E+02  0.4642E+02  0.1389E+03  0.1302E+03
    -18.002  0.1517E+02  0.3691E+02  0.1410E+03  0.1352E+03
    -17.868  0.9183E+01  0.1858E+02  0.1422E+03  0.1376E+03
    -17.734  0.5131E+02  0.4080E+02  0.1491E+03  0.1431E+03
    -17.600  0.9713E+02  0.8657E+02  0.1621E+03  0.1547E+03
    -17.466  0.8719E+02  0.7390E+02  0.1738E+03  0.1646E+03
    -17.332  0.3098E+02  0.3207E+02  0.1780E+03  0.1689E+03
    -17.197  0.4801E+02  0.2730E+02  0.1844E+03  0.1726E+03
    -17.063  0.4819E+02  0.3057E+02  0.1909E+03  0.1767E+03
    -16.929  0.9392E+01  0.1465E+02  0.1921E+03  0.1787E+03
    -16.795  0.1067E+02  0.9597E+01  0.1936E+03  0.1800E+03
    -16.661  0.1005E+02  0.2710E+00  0.1949E+03  0.1800E+03
    -16.527  0.8443E+01  0.8244E+01  0.1961E+03  0.1811E+03
    -16.393  0.9294E+01  0.2380E+02  0.1973E+03  0.1843E+03
    -16.258  0.1850E+02  0.4145E+02  0.1998E+03  0.1899E+03
    -16.124  0.3693E+02  0.2367E+02  0.2047E+03  0.1930E+03
    -15.990  0.2188E+02  0.4566E+02  0.2077E+03  0.1992E+03
    -15.856  0.2030E+02  0.2756E+02  0.2104E+03  0.2029E+03
    -15.722  0.2844E+02  0.1294E+02  0.2142E+03  0.2046E+03
    -15.588  0.3365E+02  0.4051E+02  0.2187E+03  0.2100E+03
    -15.454  0.1691E+02  0.5035E+02  0.2210E+03  0.2168E+03
    -15.319  0.3190E+01  0.3095E+02  0.2214E+03  0.2209E+03
    -15.185  0.4689E+02  0.6575E+00  0.2277E+03  0.2210E+03
    -15.051  0.4802E+02  0.2761E+02  0.2342E+03  0.2247E+03
    -14.917  0.1983E+02  0.7712E+02  0.2368E+03  0.2351E+03
    -14.783  0.2456E+02  0.3024E+02  0.2401E+03  0.2391E+03
    -14.649  0.2084E+02  0.8091E+01  0.2429E+03  0.2402E+03
    -14.515  0.7231E+00  0.1809E+02  0.2430E+03  0.2426E+03
    -14.380  0.7904E+01  0.3035E+01  0.2441E+03  0.2430E+03
    -14.246  0.1085E+02  0.1367E+02  0.2455E+03  0.2449E+03
    -14.112  0.3591E+01  0.8277E+01  0.2460E+03  0.2460E+03
    -13.978  0.4528E-03  0.5767E-01  0.2460E+03  0.2460E+03
    -13.844  0.0000E+00  0.1907E-08  0.2460E+03  0.2460E+03
    -13.710  0.0000E+00  0.0000E+00  0.2460E+03  0.2460E+03
    -13.575  0.0000E+00  0.0000E+00  0.2460E+03  0.2460E+03
    -13.441  0.0000E+00  0.0000E+00  0.2460E+03  0.2460E+03
    -13.307  0.0000E+00  0.0000E+00  0.2460E+03  0.2460E+03
    -13.173  0.0000E+00  0.0000E+00  0.2460E+03  0.2460E+03
    -13.039  0.2793E-05  0.2496E-05  0.2460E+03  0.2460E+03
    -12.905  0.9265E+00  0.8936E+00  0.2461E+03  0.2461E+03
    -12.771  0.6497E+01  0.6528E+01  0.2470E+03  0.2470E+03
    -12.636  0.3085E-01  0.3290E-01  0.2470E+03  0.2470E+03
    -12.502  0.4608E-09  0.5319E-09  0.2470E+03  0.2470E+03
    -12.368  0.0000E+00  0.0000E+00  0.2470E+03  0.2470E+03
    -12.234  0.5059E-07  0.5562E-09  0.2470E+03  0.2470E+03
    -12.100  0.2218E+00  0.3356E-01  0.2470E+03  0.2470E+03
    -11.966  0.7023E+01  0.6537E+01  0.2480E+03  0.2479E+03
    -11.832  0.2102E+00  0.8835E+00  0.2480E+03  0.2480E+03
    -11.697  0.4108E+01  0.2048E+01  0.2486E+03  0.2483E+03
    -11.563  0.3367E+01  0.5420E+01  0.2490E+03  0.2490E+03
    -11.429  0.6336E+01  0.6254E+01  0.2499E+03  0.2498E+03
    -11.295  0.1113E+01  0.1187E+01  0.2500E+03  0.2500E+03
    -11.161  0.6167E+01  0.2620E+00  0.2508E+03  0.2500E+03
    -11.027  0.1270E+01  0.7016E+01  0.2510E+03  0.2510E+03
    -10.892  0.7699E-05  0.1760E+00  0.2510E+03  0.2510E+03
    -10.758  0.0000E+00  0.2807E-07  0.2510E+03  0.2510E+03
    -10.624  0.2433E-05  0.1838E-05  0.2510E+03  0.2510E+03
    -10.490  0.8864E+00  0.8087E+00  0.2511E+03  0.2511E+03
    -10.356  0.9644E+01  0.8884E+01  0.2524E+03  0.2523E+03
    -10.222  0.4377E+01  0.5212E+01  0.2530E+03  0.2530E+03
    -10.088  0.1454E-01  0.1359E-01  0.2530E+03  0.2530E+03
     -9.953  0.9929E+01  0.8102E+01  0.2543E+03  0.2541E+03
     -9.819  0.1074E+02  0.1257E+02  0.2558E+03  0.2558E+03
     -9.685  0.1684E+01  0.1687E+01  0.2560E+03  0.2560E+03
     -9.551  0.5589E+01  0.5165E+01  0.2568E+03  0.2567E+03
     -9.417  0.9533E+01  0.6559E+01  0.2580E+03  0.2576E+03
     -9.283  0.7130E+01  0.1036E+02  0.2590E+03  0.2590E+03
     -9.149  0.6713E+01  0.6571E+01  0.2599E+03  0.2598E+03
     -9.014  0.8473E+01  0.8122E+01  0.2610E+03  0.2609E+03
     -8.880  0.7227E+01  0.4105E+01  0.2620E+03  0.2615E+03
     -8.746  0.9264E-01  0.3869E+01  0.2620E+03  0.2620E+03
     -8.612  0.8112E+01  0.7808E+01  0.2631E+03  0.2631E+03
     -8.478  0.1522E+02  0.1540E+02  0.2651E+03  0.2651E+03
     -8.344  0.2656E+02  0.2548E+02  0.2687E+03  0.2685E+03
     -8.210  0.3727E+02  0.3656E+02  0.2737E+03  0.2734E+03
     -8.075  0.3431E+02  0.3575E+02  0.2783E+03  0.2782E+03
     -7.941  0.1646E+02  0.1555E+02  0.2805E+03  0.2803E+03
     -7.807  0.1653E+02  0.1763E+02  0.2827E+03  0.2827E+03
     -7.673  0.1014E+02  0.1009E+02  0.2841E+03  0.2840E+03
     -7.539  0.1264E+02  0.1245E+02  0.2858E+03  0.2857E+03
     -7.405  0.8792E+01  0.9225E+01  0.2870E+03  0.2869E+03
     -7.270  0.2695E+01  0.6253E+00  0.2873E+03  0.2870E+03
     -7.136  0.5043E+01  0.7020E+01  0.2880E+03  0.2880E+03
     -7.002  0.1168E-01  0.1907E+00  0.2880E+03  0.2880E+03
     -6.868  0.5742E+01  0.4552E+01  0.2888E+03  0.2886E+03
     -6.734  0.4142E+01  0.4553E+01  0.2893E+03  0.2892E+03
     -6.600  0.1247E+02  0.1322E+02  0.2910E+03  0.2910E+03
     -6.466  0.6748E+01  0.6706E+01  0.2919E+03  0.2919E+03
     -6.331  0.7446E+01  0.6799E+01  0.2929E+03  0.2928E+03
     -6.197  0.8610E+01  0.9260E+01  0.2941E+03  0.2940E+03
     -6.063  0.1405E+02  0.1412E+02  0.2959E+03  0.2959E+03
     -5.929  0.4564E+01  0.3377E+01  0.2966E+03  0.2964E+03
     -5.795  0.2507E+02  0.1886E+02  0.2999E+03  0.2989E+03
     -5.661  0.6029E+00  0.7261E+01  0.3000E+03  0.2999E+03
     -5.527  0.8211E+01  0.8094E+01  0.3011E+03  0.3010E+03
     -5.392  0.4252E+02  0.1405E+02  0.3068E+03  0.3029E+03
     -5.258  0.9255E+01  0.9955E+01  0.3080E+03  0.3042E+03
     -5.124  0.1835E+02  0.2839E+02  0.3105E+03  0.3080E+03
     -4.990  0.6740E+02  0.2725E+02  0.3196E+03  0.3117E+03
     -4.856  0.1302E+03  0.1860E+02  0.3370E+03  0.3142E+03
     -4.722  0.8862E+02  0.6821E+02  0.3489E+03  0.3233E+03
     -4.588  0.5839E+02  0.6257E+02  0.3567E+03  0.3317E+03
     -4.453  0.5402E+02  0.5896E+02  0.3640E+03  0.3396E+03
     -4.319  0.1334E+03  0.1013E+03  0.3819E+03  0.3532E+03
     -4.185  0.9917E+02  0.8376E+02  0.3952E+03  0.3645E+03
     -4.051  0.7761E+02  0.7485E+02  0.4056E+03  0.3745E+03
     -3.917  0.9123E+02  0.7827E+02  0.4178E+03  0.3850E+03
     -3.783  0.6384E+02  0.4907E+02  0.4264E+03  0.3916E+03
     -3.648  0.7243E+02  0.3454E+02  0.4361E+03  0.3962E+03
     -3.514  0.5387E+02  0.4996E+02  0.4433E+03  0.4029E+03
     -3.380  0.7898E+02  0.6299E+02  0.4539E+03  0.4114E+03
     -3.246  0.5776E+02  0.6284E+02  0.4617E+03  0.4198E+03
     -3.112  0.6330E+02  0.5945E+02  0.4702E+03  0.4278E+03
     -2.978  0.1011E+03  0.9800E+02  0.4837E+03  0.4409E+03
     -2.844  0.7303E+02  0.5729E+02  0.4935E+03  0.4486E+03
     -2.709  0.7838E+02  0.9671E+02  0.5040E+03  0.4616E+03
     -2.575  0.1334E+03  0.9747E+02  0.5219E+03  0.4746E+03
     -2.441  0.1171E+03  0.1338E+03  0.5377E+03  0.4926E+03
     -2.307  0.1187E+03  0.1084E+03  0.5536E+03  0.5071E+03
     -2.173  0.9413E+02  0.1074E+03  0.5662E+03  0.5215E+03
     -2.039  0.1002E+03  0.1252E+03  0.5797E+03  0.5383E+03
     -1.905  0.5553E+02  0.9692E+02  0.5871E+03  0.5513E+03
     -1.770  0.5420E+02  0.5483E+02  0.5944E+03  0.5587E+03
     -1.636  0.2362E+02  0.5178E+02  0.5975E+03  0.5656E+03
     -1.502  0.1059E+02  0.1012E+02  0.5990E+03  0.5670E+03
     -1.368  0.7667E+01  0.4498E-02  0.6000E+03  0.5670E+03
     -1.234  0.7712E-01  0.2881E+01  0.6000E+03  0.5674E+03
     -1.100  0.1989E+00  0.4396E+02  0.6000E+03  0.5733E+03
     -0.965  0.1304E+02  0.1205E+03  0.6018E+03  0.5894E+03
     -0.831  0.2823E+01  0.7020E+02  0.6022E+03  0.5989E+03
     -0.697  0.1271E+02  0.3706E+02  0.6039E+03  0.6038E+03
     -0.563  0.1366E+02  0.1360E+02  0.6057E+03  0.6057E+03
     -0.429  0.1967E+02  0.1934E+02  0.6083E+03  0.6083E+03
     -0.295  0.1350E+02  0.1367E+02  0.6101E+03  0.6101E+03
     -0.161  0.9719E+01  0.9291E+01  0.6114E+03  0.6113E+03
     -0.026  0.4124E+01  0.4947E+01  0.6120E+03  0.6120E+03
      0.108  0.9265E-03  0.2738E-02  0.6120E+03  0.6120E+03
      0.242  0.3277E-12  0.2782E-11  0.6120E+03  0.6120E+03
      0.376  0.2040E-07  0.1974E-07  0.6120E+03  0.6120E+03
      0.510  0.2778E+00  0.2570E+00  0.6120E+03  0.6120E+03
      0.644  0.4150E+02  0.4404E+02  0.6176E+03  0.6179E+03
      0.778  0.1851E+03  0.2120E+03  0.6424E+03  0.6464E+03
      0.913  0.3244E+03  0.3109E+03  0.6859E+03  0.6881E+03
      1.047  0.3120E+03  0.2982E+03  0.7278E+03  0.7281E+03
      1.181  0.2569E+03  0.2555E+03  0.7623E+03  0.7624E+03
      1.315  0.4271E+02  0.4197E+02  0.7680E+03  0.7680E+03
      1.449  0.4373E-01  0.6965E-01  0.7680E+03  0.7680E+03
      1.583  0.4004E-09  0.2013E-08  0.7680E+03  0.7680E+03
      1.717  0.0000E+00  0.0000E+00  0.7680E+03  0.7680E+03
      1.852  0.0000E+00  0.0000E+00  0.7680E+03  0.7680E+03
      1.986  0.0000E+00  0.0000E+00  0.7680E+03  0.7680E+03
      2.120  0.0000E+00  0.0000E+00  0.7680E+03  0.7680E+03
      2.254  0.0000E+00  0.0000E+00  0.7680E+03  0.7680E+03
      2.388  0.0000E+00  0.0000E+00  0.7680E+03  0.7680E+03
      2.522  0.0000E+00  0.0000E+00  0.7680E+03  0.7680E+03
      2.657  0.0000E+00  0.0000E+00  0.7680E+03  0.7680E+03
      2.791  0.0000E+00  0.0000E+00  0.7680E+03  0.7680E+03
      2.925  0.0000E+00  0.0000E+00  0.7680E+03  0.7680E+03
      3.059  0.0000E+00  0.0000E+00  0.7680E+03  0.7680E+03
    217.67104975    -48.95055796  301     -1.50344942      1.00000000
    -48.951  0.0000E+00  0.0000E+00  0.0000E+00  0.0000E+00
    -48.062  0.0000E+00  0.0000E+00  0.0000E+00  0.0000E+00
    -47.173  0.0000E+00  0.0000E+00  0.0000E+00  0.0000E+00
    -46.284  0.0000E+00  0.0000E+00  0.0000E+00  0.0000E+00
    -45.396  0.0000E+00  0.0000E+00  0.0000E+00  0.0000E+00
    -44.507  0.0000E+00  0.0000E+00  0.0000E+00  0.0000E+00
    -43.618  0.0000E+00  0.0000E+00  0.0000E+00  0.0000E+00
    -42.729  0.0000E+00  0.0000E+00  0.0000E+00  0.0000E+00
    -41.841  0.0000E+00  0.0000E+00  0.0000E+00  0.0000E+00
    -40.952  0.0000E+00  0.0000E+00  0.0000E+00  0.0000E+00
    -40.063  0.0000E+00  0.0000E+00  0.0000E+00  0.0000E+00
    -39.174  0.0000E+00  0.0000E+00  0.0000E+00  0.0000E+00
    -38.286  0.0000E+00  0.0000E+00  0.0000E+00  0.0000E+00
    -37.397  0.0000E+00  0.0000E+00  0.0000E+00  0.0000E+00
    -36.508  0.1398E+01  0.1362E+01  0.1243E+01  0.1210E+01
    -35.619  0.1115E+02  0.1219E+02  0.1391E+02  0.1483E+02
    -34.731  0.1138E+01  0.8675E-05  0.3101E+02  0.3100E+02
    -33.842  0.0000E+00  0.0000E+00  0.3200E+02  0.3200E+02
    -32.953  0.0000E+00  0.0000E+00  0.3200E+02  0.3200E+02
    -32.065  0.0000E+00  0.0000E+00  0.3200E+02  0.3200E+02
    -31.176  0.0000E+00  0.0000E+00  0.3200E+02  0.3200E+02
    -30.287  0.0000E+00  0.0000E+00  0.3200E+02  0.3200E+02
    -29.398  0.8223E+00  0.9939E+00  0.3273E+02  0.3288E+02
    -28.510  0.0000E+00  0.0000E+00  0.3400E+02  0.3400E+02
    -27.621  0.0000E+00  0.0000E+00  0.3400E+02  0.3400E+02
    -26.732  0.1120E+01  0.1117E+01  0.3500E+02  0.3499E+02
    -25.843  0.9982E-04  0.9482E-05  0.3500E+02  0.3500E+02
    -24.955  0.0000E+00  0.0000E+00  0.3600E+02  0.3600E+02
    -24.066  0.3442E-08  0.1125E+01  0.3700E+02  0.3800E+02
    -23.177  0.1129E+01  0.1125E+01  0.3900E+02  0.3900E+02
    -22.288  0.0000E+00  0.0000E+00  0.4000E+02  0.4000E+02
    -21.400  0.1984E+01  0.1985E+01  0.4176E+02  0.4176E+02
    -20.511  0.2443E+02  0.1984E+02  0.7171E+02  0.6763E+02
    -19.622  0.1716E+02  0.9923E+01  0.1073E+03  0.9282E+02
    -18.733  0.1191E+02  0.1183E+02  0.1336E+03  0.1195E+03
    -17.845  0.2940E+02  0.2395E+02  0.1741E+03  0.1623E+03
    -16.956  0.5615E+01  0.8545E+01  0.1960E+03  0.1816E+03
    -16.067  0.1421E+02  0.1583E+02  0.2206E+03  0.2091E+03
    -15.178  0.1206E+02  0.2173E+02  0.2427E+03  0.2413E+03
    -14.290  0.2250E+01  0.3376E+01  0.2490E+03  0.2490E+03
    -13.401  0.0000E+00  0.0000E+00  0.2490E+03  0.2490E+03
    -12.512  0.1103E+01  0.2069E+00  0.2500E+03  0.2492E+03
    -11.624  0.1001E+01  0.2442E+01  0.2519E+03  0.2522E+03
    -10.735  0.2227E+01  0.2250E+01  0.2560E+03  0.2560E+03
     -9.846  0.1112E-01  0.2269E-02  0.2560E+03  0.2560E+03
     -8.957  0.3059E+01  0.2315E+01  0.2627E+03  0.2621E+03
     -8.069  0.4493E+01  0.4118E+01  0.2680E+03  0.2687E+03
     -7.180  0.8463E+01  0.5501E+01  0.2785E+03  0.2779E+03
     -6.291  0.2723E+01  0.1484E+01  0.2864E+03  0.2863E+03
     -5.402  0.2231E+02  0.1363E+02  0.3168E+03  0.3061E+03
     -4.514  0.3949E+02  0.3345E+02  0.3931E+03  0.3647E+03
     -3.625  0.3338E+02  0.2767E+02  0.4597E+03  0.4156E+03
     -2.736  0.4998E+02  0.4452E+02  0.5494E+03  0.4956E+03
     -1.847  0.1122E+02  0.1807E+02  0.5970E+03  0.5611E+03
     -0.959  0.5244E+01  0.3271E+02  0.6047E+03  0.6081E+03
     -0.070  0.2233E+02  0.1972E+02  0.6348E+03  0.6345E+03
      0.819  0.8235E+02  0.7651E+02  0.7522E+03  0.7470E+03
      1.708  0.1252E-06  0.3376E+01  0.7600E+03  0.7570E+03
      2.596  0.1123E+01  0.1126E+01  0.7620E+03  0.7590E+03
      3.485  0.0000E+00  0.0000E+00  0.7620E+03  0.7600E+03
      4.374  0.0000E+00  0.0000E+00  0.7620E+03  0.7600E+03
      5.263  0.0000E+00  0.0000E+00  0.7620E+03  0.7600E+03
      6.151  0.0000E+00  0.0000E+00  0.7620E+03  0.7600E+03
      7.040  0.0000E+00  0.0000E+00  0.7620E+03  0.7600E+03
      7.929  0.0000E+00  0.0000E+00  0.7620E+03  0.7600E+03
      8.817  0.0000E+00  0.0000E+00  0.7620E+03  0.7600E+03
      9.706  0.0000E+00  0.0000E+00  0.7620E+03  0.7600E+03
     10.595  0.0000E+00  0.0000E+00  0.7620E+03  0.7600E+03
     11.484  0.0000E+00  0.0000E+00  0.7620E+03  0.7600E+03
     12.372  0.0000E+00  0.0000E+00  0.7620E+03  0.7600E+03
     13.261  0.0000E+00  0.0000E+00  0.7620E+03  0.7600E+03
     14.150  0.0000E+00  0.0000E+00  0.7620E+03  0.7600E+03
     15.039  0.0000E+00  0.0000E+00  0.7620E+03  0.7600E+03
     15.927  0.0000E+00  0.0000E+00  0.7620E+03  0.7600E+03
     16.816  0.0000E+00  0.0000E+00  0.7620E+03  0.7600E+03
     17.705  0.0000E+00  0.0000E+00  0.7620E+03  0.7600E+03
     18.594  0.0000E+00  0.0000E+00  0.7620E+03  0.7600E+03
     19.482  0.0000E+00  0.0000E+00  0.7620E+03  0.7600E+03
     20.371  0.0000E+00  0.0000E+00  0.7620E+03  0.7600E+03
     21.260  0.0000E+00  0.0000E+00  0.7620E+03  0.7600E+03
     22.149  0.0000E+00  0.0000E+00  0.7620E+03  0.7600E+03
     23.037  0.1125E+01  0.0000E+00  0.7630E+03  0.7600E+03
     23.926  0.0000E+00  0.0000E+00  0.7630E+03  0.7600E+03
     24.815  0.0000E+00  0.0000E+00  0.7630E+03  0.7600E+03
     25.703  0.0000E+00  0.0000E+00  0.7630E+03  0.7600E+03
     26.592  0.0000E+00  0.0000E+00  0.7630E+03  0.7600E+03
     27.481  0.0000E+00  0.0000E+00  0.7630E+03  0.7600E+03
     28.370  0.0000E+00  0.0000E+00  0.7630E+03  0.7600E+03
     29.258  0.0000E+00  0.0000E+00  0.7630E+03  0.7600E+03
     30.147  0.0000E+00  0.0000E+00  0.7630E+03  0.7600E+03
     31.036  0.0000E+00  0.0000E+00  0.7630E+03  0.7600E+03
     31.925  0.0000E+00  0.0000E+00  0.7630E+03  0.7600E+03
     32.813  0.0000E+00  0.0000E+00  0.7630E+03  0.7600E+03
     33.702  0.0000E+00  0.0000E+00  0.7630E+03  0.7600E+03
     34.591  0.0000E+00  0.0000E+00  0.7630E+03  0.7600E+03
     35.480  0.0000E+00  0.0000E+00  0.7630E+03  0.7600E+03
     36.368  0.0000E+00  0.0000E+00  0.7630E+03  0.7600E+03
     37.257  0.0000E+00  0.0000E+00  0.7630E+03  0.7600E+03
     38.146  0.0000E+00  0.0000E+00  0.7630E+03  0.7600E+03
     39.035  0.0000E+00  0.0000E+00  0.7630E+03  0.7600E+03
     39.923  0.0000E+00  0.0000E+00  0.7630E+03  0.7600E+03
     40.812  0.0000E+00  0.0000E+00  0.7630E+03  0.7600E+03
     41.701  0.0000E+00  0.0000E+00  0.7630E+03  0.7600E+03
     42.590  0.0000E+00  0.0000E+00  0.7630E+03  0.7600E+03
     43.478  0.0000E+00  0.0000E+00  0.7630E+03  0.7600E+03
     44.367  0.0000E+00  0.0000E+00  0.7630E+03  0.7600E+03
     45.256  0.0000E+00  0.0000E+00  0.7630E+03  0.7600E+03
     46.144  0.0000E+00  0.0000E+00  0.7630E+03  0.7600E+03
     47.033  0.0000E+00  0.0000E+00  0.7630E+03  0.7600E+03
     47.922  0.0000E+00  0.0000E+00  0.7630E+03  0.7600E+03
     48.811  0.0000E+00  0.0000E+00  0.7630E+03  0.7600E+03
     49.699  0.0000E+00  0.0000E+00  0.7630E+03  0.7600E+03
     50.588  0.0000E+00  0.0000E+00  0.7630E+03  0.7600E+03
     51.477  0.0000E+00  0.0000E+00  0.7630E+03  0.7600E+03
     52.366  0.0000E+00  0.0000E+00  0.7630E+03  0.7600E+03
     53.254  0.0000E+00  0.0000E+00  0.7630E+03  0.7600E+03
     54.143  0.0000E+00  0.0000E+00  0.7630E+03  0.7600E+03
     55.032  0.1125E+01  0.0000E+00  0.7640E+03  0.7600E+03
     55.921  0.0000E+00  0.0000E+00  0.7640E+03  0.7600E+03
     56.809  0.0000E+00  0.0000E+00  0.7640E+03  0.7600E+03
     57.698  0.0000E+00  0.0000E+00  0.7640E+03  0.7600E+03
     58.587  0.0000E+00  0.0000E+00  0.7640E+03  0.7600E+03
     59.476  0.0000E+00  0.0000E+00  0.7640E+03  0.7600E+03
     60.364  0.0000E+00  0.0000E+00  0.7640E+03  0.7600E+03
     61.253  0.0000E+00  0.0000E+00  0.7640E+03  0.7600E+03
     62.142  0.0000E+00  0.0000E+00  0.7640E+03  0.7600E+03
     63.031  0.0000E+00  0.0000E+00  0.7640E+03  0.7600E+03
     63.919  0.0000E+00  0.0000E+00  0.7640E+03  0.7600E+03
     64.808  0.0000E+00  0.0000E+00  0.7640E+03  0.7600E+03
     65.697  0.0000E+00  0.0000E+00  0.7640E+03  0.7600E+03
     66.585  0.0000E+00  0.0000E+00  0.7640E+03  0.7600E+03
     67.474  0.0000E+00  0.0000E+00  0.7640E+03  0.7600E+03
     68.363  0.0000E+00  0.0000E+00  0.7640E+03  0.7600E+03
     69.252  0.0000E+00  0.0000E+00  0.7640E+03  0.7600E+03
     70.140  0.0000E+00  0.0000E+00  0.7640E+03  0.7600E+03
     71.029  0.0000E+00  0.0000E+00  0.7640E+03  0.7600E+03
     71.918  0.0000E+00  0.0000E+00  0.7640E+03  0.7600E+03
     72.807  0.0000E+00  0.0000E+00  0.7640E+03  0.7600E+03
     73.695  0.0000E+00  0.0000E+00  0.7640E+03  0.7600E+03
     74.584  0.0000E+00  0.0000E+00  0.7640E+03  0.7600E+03
     75.473  0.0000E+00  0.0000E+00  0.7640E+03  0.7600E+03
     76.362  0.0000E+00  0.0000E+00  0.7640E+03  0.7600E+03
     77.250  0.0000E+00  0.0000E+00  0.7640E+03  0.7600E+03
     78.139  0.0000E+00  0.0000E+00  0.7640E+03  0.7600E+03
     79.028  0.0000E+00  0.0000E+00  0.7640E+03  0.7600E+03
     79.917  0.0000E+00  0.0000E+00  0.7640E+03  0.7600E+03
     80.805  0.0000E+00  0.0000E+00  0.7640E+03  0.7600E+03
     81.694  0.0000E+00  0.0000E+00  0.7640E+03  0.7600E+03
     82.583  0.0000E+00  0.0000E+00  0.7640E+03  0.7600E+03
     83.472  0.0000E+00  0.0000E+00  0.7640E+03  0.7600E+03
     84.360  0.0000E+00  0.0000E+00  0.7640E+03  0.7600E+03
     85.249  0.0000E+00  0.0000E+00  0.7640E+03  0.7600E+03
     86.138  0.0000E+00  0.0000E+00  0.7640E+03  0.7600E+03
     87.026  0.0000E+00  0.0000E+00  0.7640E+03  0.7600E+03
     87.915  0.0000E+00  0.0000E+00  0.7640E+03  0.7600E+03
     88.804  0.0000E+00  0.0000E+00  0.7640E+03  0.7600E+03
     89.693  0.0000E+00  0.0000E+00  0.7640E+03  0.7600E+03
     90.581  0.0000E+00  0.0000E+00  0.7640E+03  0.7600E+03
     91.470  0.0000E+00  0.0000E+00  0.7640E+03  0.7600E+03
     92.359  0.0000E+00  0.0000E+00  0.7640E+03  0.7600E+03
     93.248  0.0000E+00  0.0000E+00  0.7640E+03  0.7600E+03
     94.136  0.0000E+00  0.0000E+00  0.7640E+03  0.7600E+03
     95.025  0.0000E+00  0.0000E+00  0.7640E+03  0.7600E+03
     95.914  0.0000E+00  0.0000E+00  0.7640E+03  0.7600E+03
     96.803  0.0000E+00  0.0000E+00  0.7640E+03  0.7600E+03
     97.691  0.0000E+00  0.0000E+00  0.7640E+03  0.7600E+03
     98.580  0.0000E+00  0.0000E+00  0.7640E+03  0.7600E+03
     99.469  0.0000E+00  0.0000E+00  0.7640E+03  0.7600E+03
    100.358  0.0000E+00  0.0000E+00  0.7640E+03  0.7600E+03
    101.246  0.0000E+00  0.0000E+00  0.7640E+03  0.7600E+03
    102.135  0.0000E+00  0.0000E+00  0.7640E+03  0.7600E+03
    103.024  0.0000E+00  0.0000E+00  0.7640E+03  0.7600E+03
    103.912  0.0000E+00  0.0000E+00  0.7640E+03  0.7600E+03
    104.801  0.0000E+00  0.0000E+00  0.7640E+03  0.7600E+03
    105.690  0.0000E+00  0.0000E+00  0.7640E+03  0.7600E+03
    106.579  0.0000E+00  0.0000E+00  0.7640E+03  0.7600E+03
    107.467  0.0000E+00  0.0000E+00  0.7640E+03  0.7600E+03
    108.356  0.0000E+00  0.0000E+00  0.7640E+03  0.7600E+03
    109.245  0.0000E+00  0.0000E+00  0.7640E+03  0.7600E+03
    110.134  0.0000E+00  0.0000E+00  0.7640E+03  0.7600E+03
    111.022  0.0000E+00  0.0000E+00  0.7640E+03  0.7600E+03
    111.911  0.0000E+00  0.0000E+00  0.7640E+03  0.7600E+03
    112.800  0.0000E+00  0.0000E+00  0.7640E+03  0.7600E+03
    113.689  0.0000E+00  0.0000E+00  0.7640E+03  0.7600E+03
    114.577  0.0000E+00  0.0000E+00  0.7640E+03  0.7600E+03
    115.466  0.0000E+00  0.0000E+00  0.7640E+03  0.7600E+03
    116.355  0.0000E+00  0.0000E+00  0.7640E+03  0.7600E+03
    117.244  0.0000E+00  0.0000E+00  0.7640E+03  0.7600E+03
    118.132  0.0000E+00  0.0000E+00  0.7640E+03  0.7600E+03
    119.021  0.0000E+00  0.0000E+00  0.7640E+03  0.7600E+03
    119.910  0.0000E+00  0.0000E+00  0.7640E+03  0.7600E+03
    120.799  0.0000E+00  0.0000E+00  0.7640E+03  0.7600E+03
    121.687  0.0000E+00  0.0000E+00  0.7640E+03  0.7600E+03
    122.576  0.0000E+00  0.0000E+00  0.7640E+03  0.7600E+03
    123.465  0.0000E+00  0.0000E+00  0.7640E+03  0.7600E+03
    124.353  0.0000E+00  0.0000E+00  0.7640E+03  0.7600E+03
    125.242  0.0000E+00  0.0000E+00  0.7640E+03  0.7600E+03
    126.131  0.0000E+00  0.0000E+00  0.7640E+03  0.7600E+03
    127.020  0.0000E+00  0.0000E+00  0.7640E+03  0.7600E+03
    127.908  0.0000E+00  0.0000E+00  0.7640E+03  0.7600E+03
    128.797  0.0000E+00  0.0000E+00  0.7640E+03  0.7600E+03
    129.686  0.0000E+00  0.0000E+00  0.7640E+03  0.7600E+03
    130.575  0.0000E+00  0.0000E+00  0.7640E+03  0.7600E+03
    131.463  0.0000E+00  0.0000E+00  0.7640E+03  0.7600E+03
    132.352  0.0000E+00  0.0000E+00  0.7640E+03  0.7600E+03
    133.241  0.0000E+00  0.0000E+00  0.7640E+03  0.7600E+03
    134.130  0.0000E+00  0.0000E+00  0.7640E+03  0.7600E+03
    135.018  0.0000E+00  0.0000E+00  0.7640E+03  0.7600E+03
    135.907  0.0000E+00  0.0000E+00  0.7640E+03  0.7600E+03
    136.796  0.0000E+00  0.0000E+00  0.7640E+03  0.7600E+03
    137.685  0.0000E+00  0.0000E+00  0.7640E+03  0.7600E+03
    138.573  0.0000E+00  0.0000E+00  0.7640E+03  0.7600E+03
    139.462  0.0000E+00  0.0000E+00  0.7640E+03  0.7600E+03
    140.351  0.0000E+00  0.0000E+00  0.7640E+03  0.7600E+03
    141.240  0.0000E+00  0.0000E+00  0.7640E+03  0.7600E+03
    142.128  0.0000E+00  0.0000E+00  0.7640E+03  0.7600E+03
    143.017  0.0000E+00  0.0000E+00  0.7640E+03  0.7600E+03
    143.906  0.0000E+00  0.0000E+00  0.7640E+03  0.7600E+03
    144.794  0.0000E+00  0.0000E+00  0.7640E+03  0.7600E+03
    145.683  0.0000E+00  0.0000E+00  0.7640E+03  0.7600E+03
    146.572  0.0000E+00  0.0000E+00  0.7640E+03  0.7600E+03
    147.461  0.0000E+00  0.0000E+00  0.7640E+03  0.7600E+03
    148.349  0.0000E+00  0.0000E+00  0.7640E+03  0.7600E+03
    149.238  0.0000E+00  0.0000E+00  0.7640E+03  0.7600E+03
    150.127  0.0000E+00  0.0000E+00  0.7640E+03  0.7600E+03
    151.016  0.0000E+00  0.0000E+00  0.7640E+03  0.7600E+03
    151.904  0.0000E+00  0.0000E+00  0.7640E+03  0.7600E+03
    152.793  0.0000E+00  0.0000E+00  0.7640E+03  0.7600E+03
    153.682  0.0000E+00  0.0000E+00  0.7640E+03  0.7600E+03
    154.571  0.0000E+00  0.0000E+00  0.7640E+03  0.7600E+03
    155.459  0.0000E+00  0.0000E+00  0.7640E+03  0.7600E+03
    156.348  0.0000E+00  0.0000E+00  0.7640E+03  0.7600E+03
    157.237  0.0000E+00  0.0000E+00  0.7640E+03  0.7600E+03
    158.126  0.0000E+00  0.0000E+00  0.7640E+03  0.7600E+03
    159.014  0.0000E+00  0.0000E+00  0.7640E+03  0.7600E+03
    159.903  0.0000E+00  0.0000E+00  0.7640E+03  0.7600E+03
    160.792  0.0000E+00  0.0000E+00  0.7640E+03  0.7600E+03
    161.681  0.0000E+00  0.0000E+00  0.7640E+03  0.7600E+03
    162.569  0.0000E+00  0.0000E+00  0.7640E+03  0.7600E+03
    163.458  0.0000E+00  0.0000E+00  0.7640E+03  0.7600E+03
    164.347  0.0000E+00  0.0000E+00  0.7640E+03  0.7600E+03
    165.235  0.0000E+00  0.0000E+00  0.7640E+03  0.7600E+03
    166.124  0.0000E+00  0.0000E+00  0.7640E+03  0.7600E+03
    167.013  0.0000E+00  0.0000E+00  0.7640E+03  0.7600E+03
    167.902  0.0000E+00  0.0000E+00  0.7640E+03  0.7600E+03
    168.790  0.0000E+00  0.0000E+00  0.7640E+03  0.7600E+03
    169.679  0.0000E+00  0.0000E+00  0.7640E+03  0.7600E+03
    170.568  0.0000E+00  0.0000E+00  0.7640E+03  0.7600E+03
    171.457  0.0000E+00  0.0000E+00  0.7640E+03  0.7600E+03
    172.345  0.0000E+00  0.0000E+00  0.7640E+03  0.7600E+03
    173.234  0.0000E+00  0.0000E+00  0.7640E+03  0.7600E+03
    174.123  0.0000E+00  0.0000E+00  0.7640E+03  0.7600E+03
    175.012  0.0000E+00  0.0000E+00  0.7640E+03  0.7600E+03
    175.900  0.0000E+00  0.0000E+00  0.7640E+03  0.7600E+03
    176.789  0.0000E+00  0.0000E+00  0.7640E+03  0.7600E+03
    177.678  0.0000E+00  0.0000E+00  0.7640E+03  0.7600E+03
    178.567  0.0000E+00  0.0000E+00  0.7640E+03  0.7600E+03
    179.455  0.0000E+00  0.0000E+00  0.7640E+03  0.7600E+03
    180.344  0.0000E+00  0.0000E+00  0.7640E+03  0.7600E+03
    181.233  0.0000E+00  0.0000E+00  0.7640E+03  0.7600E+03
    182.122  0.0000E+00  0.0000E+00  0.7640E+03  0.7600E+03
    183.010  0.0000E+00  0.0000E+00  0.7640E+03  0.7610E+03
    183.899  0.0000E+00  0.0000E+00  0.7640E+03  0.7610E+03
    184.788  0.0000E+00  0.1125E+01  0.7640E+03  0.7620E+03
    185.676  0.0000E+00  0.0000E+00  0.7640E+03  0.7620E+03
    186.565  0.0000E+00  0.0000E+00  0.7640E+03  0.7620E+03
    187.454  0.0000E+00  0.0000E+00  0.7640E+03  0.7620E+03
    188.343  0.0000E+00  0.1124E+01  0.7640E+03  0.7630E+03
    189.231  0.0000E+00  0.0000E+00  0.7640E+03  0.7640E+03
    190.120  0.0000E+00  0.0000E+00  0.7640E+03  0.7640E+03
    191.009  0.0000E+00  0.0000E+00  0.7640E+03  0.7640E+03
    191.898  0.0000E+00  0.0000E+00  0.7640E+03  0.7640E+03
    192.786  0.1125E+01  0.0000E+00  0.7650E+03  0.7640E+03
    193.675  0.0000E+00  0.1936E-13  0.7660E+03  0.7640E+03
    194.564  0.0000E+00  0.0000E+00  0.7660E+03  0.7650E+03
    195.453  0.0000E+00  0.0000E+00  0.7660E+03  0.7650E+03
    196.341  0.1198E-05  0.0000E+00  0.7660E+03  0.7650E+03
    197.230  0.0000E+00  0.3553E-02  0.7670E+03  0.7650E+03
    198.119  0.0000E+00  0.0000E+00  0.7670E+03  0.7660E+03
    199.008  0.0000E+00  0.5228E-06  0.7670E+03  0.7660E+03
    199.896  0.0000E+00  0.0000E+00  0.7670E+03  0.7670E+03
    200.785  0.0000E+00  0.0000E+00  0.7670E+03  0.7670E+03
    201.674  0.0000E+00  0.0000E+00  0.7670E+03  0.7670E+03
    202.562  0.0000E+00  0.0000E+00  0.7670E+03  0.7670E+03
    203.451  0.0000E+00  0.0000E+00  0.7670E+03  0.7670E+03
    204.340  0.0000E+00  0.0000E+00  0.7670E+03  0.7670E+03
    205.229  0.9331E+00  0.0000E+00  0.7678E+03  0.7670E+03
    206.117  0.0000E+00  0.0000E+00  0.7680E+03  0.7680E+03
    207.006  0.0000E+00  0.0000E+00  0.7680E+03  0.7680E+03
    207.895  0.0000E+00  0.0000E+00  0.7680E+03  0.7680E+03
    208.784  0.0000E+00  0.0000E+00  0.7680E+03  0.7680E+03
    209.672  0.0000E+00  0.0000E+00  0.7680E+03  0.7680E+03
    210.561  0.0000E+00  0.0000E+00  0.7680E+03  0.7680E+03
    211.450  0.0000E+00  0.0000E+00  0.7680E+03  0.7680E+03
    212.339  0.0000E+00  0.0000E+00  0.7680E+03  0.7680E+03
    213.227  0.0000E+00  0.0000E+00  0.7680E+03  0.7680E+03
    214.116  0.0000E+00  0.0000E+00  0.7680E+03  0.7680E+03
    215.005  0.0000E+00  0.0000E+00  0.7680E+03  0.7680E+03
    215.894  0.0000E+00  0.0000E+00  0.7680E+03  0.7680E+03
    216.782  0.0000E+00  0.0000E+00  0.7680E+03  0.7680E+03
    217.671  0.0000E+00  0.0000E+00  0.7680E+03  0.7680E+03
