Global Parameters
ISTART =  1            (Read existing wavefunction, if there)
# ICHARG =  11         (Non-self-consistent: GGA/LDA band structures)
LREAL  = Auto       (Projection operators: automatic)
ENCUT  =  520        (Cut-off energy for plane wave basis set, in eV)
LWAVE  = .FALSE.        (Write WAVECAR or not)
LCHARG = .FALSE.        (Write CHGCAR or not)
ADDGRID= .TRUE.        (Increase grid, helps GGA convergence)
LASPH  = .TRUE.        (Give more accurate total energies and band structure calculations)
PREC   = Normal      (Precision level: Normal or Accurate, set Accurate when perform structure lattice relaxation calculation)
# LVTOT  = .TRUE.      (Write total electrostatic potential into LOCPOT or not)
# LVHAR  = .TRUE.      (Write ionic + Hartree electrostatic potential into LOCPOT or not)
# NELECT =             (No. of electrons: charged cells, be careful)
# LPLANE = .TRUE.      (Real space distribution, supercells)
# NWRITE = 2           (Medium-level output)
# KPAR   = 2           (Divides k-grid into separate groups)
# NGXF    = 300        (FFT grid mesh density for nice charge/potential plots)
# NGYF    = 300        (FFT grid mesh density for nice charge/potential plots)
# NGZF    = 300        (FFT grid mesh density for nice charge/potential plots)
ALGO  = Fast          (Algorithm: Fast, Normal, All, Damped)
Electronic Relaxation
ISMEAR =  0            (Gaussian smearing, metals:1)
SIGMA  =  0.05         (Smearing value in eV, metals:0.2)
NELM   =  90           (Max electronic SCF steps)
NELMIN =  6            (Min electronic SCF steps)
EDIFF  =  1E-04        (SCF energy convergence, in eV)
# GGA  =  PS           (PBEsol exchange-correlation)
 
Ionic Relaxation
NSW    =  1000          (Max ionic steps)
POTIM = 1
IBRION =  0            (Algorithm: 0-MD, 1-Quasi-New, 2-CG)
ISIF   =  2            (Stress/relaxation: 2-Ions, 3-Shape/Ions/V, 4-Shape/Ions)
EDIFFG = -1E-02        (Ionic convergence, eV/AA)
# ISYM =  2            (Symmetry: 0=none, 2=GGA, 3=hybrids)
SMASS = 0
TEBEG = 300
TEEND = 300 
NBLOCK =10
NCORE  = 4


ISPIN  =  2 
MAGMOM = 32*1.0  4*0.6 118*0.6 40*0.01


IVDW =  12


DFT+U Calculation
LDAU    = .TRUE.        (Activate DFT+U)
LDAUTYPE=  2            (Dudarev, only U-J matters)
LDAUL   =  3  2  -1 -1     (Orbitals for each species)
LDAUU   =  5.0   2.0   0.0 0.0       (U for each species)
LDAUJ   =  0  0  0   0     (J for each species)
LMAXMIX =  6            (Mixing cut-off, 4-d, 6-f)
