 vasp.6.4.3 19Mar24 (build Mar 01 2025 18:03:59) gamma-only                     
  
 executed on              Shaheen date 2025.05.17  12:32:37
 running  192 mpi-ranks, on    1 nodes
 distrk:  each k-point on  192 cores,    1 groups
 distr:  one band on NCORE=   4 cores,   48 groups


--------------------------------------------------------------------------------------------------------


 INCAR:
   ISTART = 1            (Read existing wavefunction, if there)
   LREAL = Auto       (Projection operators: automatic)
   ENCUT = 520        (Cut-off energy for plane wave basis set, in eV)
   LWAVE = .FALSE.        (Write WAVECAR or not)
   LCHARG = .FALSE.        (Write CHGCAR or not)
   ADDGRID = .TRUE.        (Increase grid, helps GGA convergence)
   LASPH = .TRUE.        (Give more accurate total energies and band structure calculations)
   PREC = Normal      (Precision level: Normal or Accurate, set Accurate when perform structure lattice relaxation calculation)
   ALGO = Fast          (Algorithm: Fast, Normal, All, Damped)
   ISMEAR = 0            (Gaussian smearing, metals:1)
   SIGMA = 0.05         (Smearing value in eV, metals:0.2)
   NELM = 90           (Max electronic SCF steps)
   NELMIN = 6            (Min electronic SCF steps)
   EDIFF = 1E-04        (SCF energy convergence, in eV)
   NSW = 300          (Max ionic steps)
   POTIM = 20
   IBRION = 0            (Algorithm: 0-MD, 1-Quasi-New, 2-CG)
   ISIF = 2            (Stress/relaxation: 2-Ions, 3-Shape/Ions/V, 4-Shape/Ions)
   EDIFFG = -2E-02        (Ionic convergence, eV/AA)
   TEBEG = 300
   TEEND = 300
   NBLOCK = 1
   KBLOCK = 1
   NCORE = 4
   ISPIN = 2
   MAGMOM = 32*1.0  4*0.6 118*0.6 40*0.01
   IVDW = 12
   LDAU = .TRUE.        (Activate DFT+U)
   LDAUTYPE = 2            (Dudarev, only U-J matters)
   LDAUL = 3  2  -1 -1     (Orbitals for each species)
   LDAUU = 5.0   2.0   0.0 0.0       (U for each species)
   LDAUJ = 0  0  0   0     (J for each species)
   LMAXMIX = 6            (Mixing cut-off, 4-d, 6-f)

 POTCAR:    PAW_PBE Ce 23Dec2003                  
 POTCAR:    PAW_PBE Ir 06Sep2000                  
 POTCAR:    PAW_PBE O 08Apr2002                   
 POTCAR:    PAW_PBE H 15Jun2001                   
 -----------------------------------------------------------------------------
|                                                                             |
|           W    W    AA    RRRRR   N    N  II  N    N   GGGG   !!!           |
|           W    W   A  A   R    R  NN   N  II  NN   N  G    G  !!!           |
|           W    W  A    A  R    R  N N  N  II  N N  N  G       !!!           |
|           W WW W  AAAAAA  RRRRR   N  N N  II  N  N N  G  GGG   !            |
|           WW  WW  A    A  R   R   N   NN  II  N   NN  G    G                |
|           W    W  A    A  R    R  N    N  II  N    N   GGGG   !!!           |
|                                                                             |
|     ISYM>0 for a molecular dynamics simmulation is not recommended.         |
|                                                                             |
 -----------------------------------------------------------------------------

 -----------------------------------------------------------------------------
|                                                                             |
|           W    W    AA    RRRRR   N    N  II  N    N   GGGG   !!!           |
|           W    W   A  A   R    R  NN   N  II  NN   N  G    G  !!!           |
|           W    W  A    A  R    R  N N  N  II  N N  N  G       !!!           |
|           W WW W  AAAAAA  RRRRR   N  N N  II  N  N N  G  GGG   !            |
|           WW  WW  A    A  R   R   N   NN  II  N   NN  G    G                |
|           W    W  A    A  R    R  N    N  II  N    N   GGGG   !!!           |
|                                                                             |
|     For optimal performance we recommend to set                             |
|       NCORE = 2 up to number-of-cores-per-socket                            |
|     NCORE specifies how many cores store one orbital (NPAR=cpu/NCORE).      |
|     This setting can greatly improve the performance of VASP for DFT.       |
|     The default, NCORE=1 might be grossly inefficient on modern             |
|     multi-core architectures or massively parallel machines. Do your        |
|     own testing! More info at https://www.vasp.at/wiki/index.php/NCORE      |
|     Unfortunately you need to use the default for GW and RPA                |
|     calculations (for HF NCORE is supported but not extensively tested      |
|     yet).                                                                   |
|                                                                             |
 -----------------------------------------------------------------------------

 POTCAR:    PAW_PBE Ce 23Dec2003                  
   SHA256 =  00bd3101dba980d69718c826e9aff48526de61f93249f80fb0d1cde9afca69b7 Ce/POTCAR             
   COPYR  = (c) Copyright 23Dec2003 Georg Kresse                                                    
   COPYR  = This file is part of the software VASP. Any use, copying, and all other rights are regul
   COPYR  = If you do not have a valid VASP license, you may not use, copy or distribute this file. 
   VRHFIN =Ce : [core= Kr 4d10]                                                                     
   LEXCH  = PE                                                                                      
   EATOM  =  1063.0861 eV,   78.1346 Ry                                                             
                                                                                                    
   TITEL  = PAW_PBE Ce 23Dec2003                                                                    
   LULTRA =        F    use ultrasoft PP ?                                                          
   IUNSCR =        1    unscreen: 0-lin 1-nonlin 2-no                                               
   RPACOR =    1.800    partial core radius                                                         
   POMASS =  140.115; ZVAL   =   12.000    mass and valenz                                          
   RCORE  =    2.700    outmost cutoff radius                                                       
   RWIGS  =    2.500; RWIGS  =    1.323    wigner-seitz radius (au A)                               
   ENMAX  =  273.042; ENMIN  =  204.781 eV                                                          
   RCLOC  =    1.810    cutoff for local pot                                                        
   LCOR   =        T    correct aug charges                                                         
   LPAW   =        T    paw PP                                                                      
   EAUG   =  580.196                                                                                
   DEXC   =    0.000                                                                                
   RMAX   =    2.749    core radius for proj-oper                                                   
   RAUG   =    1.300    factor for augmentation sphere                                              
   RDEP   =    2.810    radius for radial grids                                                     
   RDEPT  =    2.162    core radius for aug-charge                                                  
                                                                                                    
   Atomic configuration                                                                             
   14 entries                                                                                       
     n  l   j            E        occ.                                                              
     1  0  0.50    -40258.9816   2.0000                                                             
     2  0  0.50     -6445.4884   2.0000                                                             
     2  1  1.50     -5771.7470   6.0000                                                             
     3  0  0.50     -1387.9739   2.0000                                                             
     3  1  1.50     -1173.8158   6.0000                                                             
     3  2  2.50      -869.9108  10.0000                                                             
     4  0  0.50      -280.8706   2.0000                                                             
     4  1  1.50      -210.9815   6.0000                                                             
     4  2  2.50      -110.4558  10.0000                                                             
     5  0  0.50       -40.5819   2.0000                                                             
     6  0  0.50        -3.7444   2.0000                                                             
     5  1  1.50       -23.2188   6.0000                                                             
     5  2  2.50        -3.0598   1.0000                                                             
     4  3  2.50        -5.3970   1.0000                                                             
   Description                                                                                      
     l       E           TYP  RCUT    TYP  RCUT                                                     
     0    -40.5819164     23  1.500                                                                 
     0     -3.7443793     23  2.300                                                                 
     1    -23.2188445     23  2.000                                                                 
     1     40.8174780     23  2.300                                                                 
     2     -3.0597556     23  2.500                                                                 
     2     13.6058260     23  2.500                                                                 
     3     -5.3970469     23  2.700                                                                 
     3     -5.8505052     23  2.700                                                                 
  local pseudopotential read in
  partial core-charges read in
  partial kinetic energy density read in
  atomic valenz-charges read in
  non local Contribution for L=           0  read in
    real space projection operators read in
  non local Contribution for L=           0  read in
    real space projection operators read in
  non local Contribution for L=           1  read in
    real space projection operators read in
  non local Contribution for L=           1  read in
    real space projection operators read in
  non local Contribution for L=           2  read in
    real space projection operators read in
  non local Contribution for L=           2  read in
    real space projection operators read in
  non local Contribution for L=           3  read in
    real space projection operators read in
  non local Contribution for L=           3  read in
    real space projection operators read in
    PAW grid and wavefunctions read in
 
   number of l-projection  operators is LMAX  =           8
   number of lm-projection operators is LMMAX =          32
 
 POTCAR:    PAW_PBE Ir 06Sep2000                  
   SHA256 =  7c6af8d4d487b237782eb51e6f62977b27a1da78c3c96acd1cebefd6c308f120 Ir/POTCAR             
   COPYR  = (c) Copyright 06Sep2000 Georg Kresse                                                    
   COPYR  = This file is part of the software VASP. Any use, copying, and all other rights are regul
   COPYR  = If you do not have a valid VASP license, you may not use, copy or distribute this file. 
   VRHFIN =Ir: s1d8                                                                                 
   LEXCH  = PE                                                                                      
   EATOM  =   560.1833 eV,   41.1723 Ry                                                             
                                                                                                    
   TITEL  = PAW_PBE Ir 06Sep2000                                                                    
   LULTRA =        F    use ultrasoft PP ?                                                          
   IUNSCR =        1    unscreen: 0-lin 1-nonlin 2-no                                               
   RPACOR =    2.250    partial core radius                                                         
   POMASS =  192.220; ZVAL   =    9.000    mass and valenz                                          
   RCORE  =    2.600    outmost cutoff radius                                                       
   RWIGS  =    2.690; RWIGS  =    1.423    wigner-seitz radius (au A)                               
   ENMAX  =  210.864; ENMIN  =  158.148 eV                                                          
   RCLOC  =    1.857    cutoff for local pot                                                        
   LCOR   =        T    correct aug charges                                                         
   LPAW   =        T    paw PP                                                                      
   EAUG   =  318.962                                                                                
   DEXC   =    0.000                                                                                
   RMAX   =    2.667    core radius for proj-oper                                                   
   RAUG   =    1.300    factor for augmentation sphere                                              
   RDEP   =    2.748    radius for radial grids                                                     
   RDEPT  =    2.300    core radius for aug-charge                                                  
                                                                                                    
   Atomic configuration                                                                             
   16 entries                                                                                       
     n  l   j            E        occ.                                                              
     1  0  0.50    -76100.0449   2.0000                                                             
     2  0  0.50    -13308.1683   2.0000                                                             
     2  1  1.50    -11558.0021   6.0000                                                             
     3  0  0.50     -3110.7274   2.0000                                                             
     3  1  1.50     -2599.2109   6.0000                                                             
     3  2  2.50     -2037.1515  10.0000                                                             
     4  0  0.50      -661.6001   2.0000                                                             
     4  1  1.50      -493.8981   6.0000                                                             
     4  2  2.50      -288.1909  10.0000                                                             
     4  3  3.50       -59.5718  14.0000                                                             
     5  0  0.50       -95.3879   2.0000                                                             
     5  1  1.50       -52.2747   6.0000                                                             
     5  2  2.50        -5.4180   8.0000                                                             
     6  0  0.50        -5.5479   1.0000                                                             
     6  1  1.50        -6.8029   0.0000                                                             
     5  3  2.50        -1.3606   0.0000                                                             
   Description                                                                                      
     l       E           TYP  RCUT    TYP  RCUT                                                     
     2     -5.4179967     23  2.600                                                                 
     2     -6.7785793     23  2.600                                                                 
     0     -5.5478636     23  2.600                                                                 
     0      2.2542272     23  2.600                                                                 
     1     -2.7211652     23  2.600                                                                 
     1     20.4087390     23  2.600                                                                 
  local pseudopotential read in
  partial core-charges read in
  partial kinetic energy density read in
  atomic valenz-charges read in
  non local Contribution for L=           2  read in
    real space projection operators read in
  non local Contribution for L=           2  read in
    real space projection operators read in
  non local Contribution for L=           0  read in
    real space projection operators read in
  non local Contribution for L=           0  read in
    real space projection operators read in
  non local Contribution for L=           1  read in
    real space projection operators read in
  non local Contribution for L=           1  read in
    real space projection operators read in
    PAW grid and wavefunctions read in
 
   number of l-projection  operators is LMAX  =           6
   number of lm-projection operators is LMMAX =          18
 
 POTCAR:    PAW_PBE O 08Apr2002                   
   SHA256 =  818f92134a0a090dccd8ba1447fa70422a3b330e708bb4f08108d8ae51209ddf O/POTCAR              
   COPYR  = (c) Copyright 08Apr2002 Georg Kresse                                                    
   COPYR  = This file is part of the software VASP. Any use, copying, and all other rights are regul
   COPYR  = If you do not have a valid VASP license, you may not use, copy or distribute this file. 
   VRHFIN =O: s2p4                                                                                  
   LEXCH  = PE                                                                                      
   EATOM  =   432.3788 eV,   31.7789 Ry                                                             
                                                                                                    
   TITEL  = PAW_PBE O 08Apr2002                                                                     
   LULTRA =        F    use ultrasoft PP ?                                                          
   IUNSCR =        1    unscreen: 0-lin 1-nonlin 2-no                                               
   RPACOR =    1.200    partial core radius                                                         
   POMASS =   16.000; ZVAL   =    6.000    mass and valenz                                          
   RCORE  =    1.520    outmost cutoff radius                                                       
   RWIGS  =    1.550; RWIGS  =    0.820    wigner-seitz radius (au A)                               
   ENMAX  =  400.000; ENMIN  =  300.000 eV                                                          
   ICORE  =        2    local potential                                                             
   LCOR   =        T    correct aug charges                                                         
   LPAW   =        T    paw PP                                                                      
   EAUG   =  605.392                                                                                
   DEXC   =    0.000                                                                                
   RMAX   =    1.553    core radius for proj-oper                                                   
   RAUG   =    1.300    factor for augmentation sphere                                              
   RDEP   =    1.550    radius for radial grids                                                     
   RDEPT  =    1.329    core radius for aug-charge                                                  
                                                                                                    
   Atomic configuration                                                                             
    4 entries                                                                                       
     n  l   j            E        occ.                                                              
     1  0  0.50      -514.6923   2.0000                                                             
     2  0  0.50       -23.9615   2.0000                                                             
     2  1  0.50        -9.0305   4.0000                                                             
     3  2  1.50        -9.5241   0.0000                                                             
   Description                                                                                      
     l       E           TYP  RCUT    TYP  RCUT                                                     
     0    -23.9615318     23  1.200                                                                 
     0     -9.5240782     23  1.200                                                                 
     1     -9.0304911     23  1.520                                                                 
     1      8.1634956     23  1.520                                                                 
     2     -9.5240782      7  1.500                                                                 
  local pseudopotential read in
  partial core-charges read in
  partial kinetic energy density read in
  kinetic energy density of atom read in
  atomic valenz-charges read in
  non local Contribution for L=           0  read in
    real space projection operators read in
  non local Contribution for L=           0  read in
    real space projection operators read in
  non local Contribution for L=           1  read in
    real space projection operators read in
  non local Contribution for L=           1  read in
    real space projection operators read in
    PAW grid and wavefunctions read in
 
   number of l-projection  operators is LMAX  =           4
   number of lm-projection operators is LMMAX =           8
 
 POTCAR:    PAW_PBE H 15Jun2001                   
   SHA256 =  030f79b5d3ab3cf0e668861823c8fb652ff669f3e15e46930bd03bfd63a607b6 H/POTCAR              
   COPYR  = (c) Copyright 15Jun2001 Georg Kresse                                                    
   COPYR  = This file is part of the software VASP. Any use, copying, and all other rights are regul
   COPYR  = If you do not have a valid VASP license, you may not use, copy or distribute this file. 
   VRHFIN =H: ultrasoft test                                                                        
   LEXCH  = PE                                                                                      
   EATOM  =    12.4884 eV,    0.9179 Ry                                                             
                                                                                                    
   TITEL  = PAW_PBE H 15Jun2001                                                                     
   LULTRA =        F    use ultrasoft PP ?                                                          
   IUNSCR =        0    unscreen: 0-lin 1-nonlin 2-no                                               
   RPACOR =    0.000    partial core radius                                                         
   POMASS =    1.000; ZVAL   =    1.000    mass and valenz                                          
   RCORE  =    1.100    outmost cutoff radius                                                       
   RWIGS  =    0.700; RWIGS  =    0.370    wigner-seitz radius (au A)                               
   ENMAX  =  250.000; ENMIN  =  200.000 eV                                                          
   RCLOC  =    0.701    cutoff for local pot                                                        
   LCOR   =        T    correct aug charges                                                         
   LPAW   =        T    paw PP                                                                      
   EAUG   =  400.000                                                                                
   RMAX   =    1.123    core radius for proj-oper                                                   
   RAUG   =    1.200    factor for augmentation sphere                                              
   RDEP   =    1.112    radius for radial grids                                                     
   RDEPT  =    0.926    core radius for aug-charge                                                  
                                                                                                    
   Atomic configuration                                                                             
    2 entries                                                                                       
     n  l   j            E        occ.                                                              
     1  0  0.50        -6.4927   1.0000                                                             
     2  1  0.50        -3.4015   0.0000                                                             
   Description                                                                                      
     l       E           TYP  RCUT    TYP  RCUT                                                     
     0     -6.4927494     23  1.100                                                                 
     0      6.8029130     23  1.100                                                                 
     1     -4.0817478     23  1.100                                                                 
  local pseudopotential read in
  atomic valenz-charges read in
  non local Contribution for L=           0  read in
    real space projection operators read in
  non local Contribution for L=           0  read in
    real space projection operators read in
  non local Contribution for L=           1  read in
    real space projection operators read in
    PAW grid and wavefunctions read in
 
   number of l-projection  operators is LMAX  =           3
   number of lm-projection operators is LMMAX =           5
 
 Optimization of the real space projectors (new method)

 maximal supplied QI-value         = 13.98
 optimisation between [QCUT,QGAM] = [ 11.61, 23.35] = [ 37.72,152.72] Ry 
 Optimized for a Real-space Cutoff    1.58 Angstroem

   l    n(q)    QCUT    max X(q) W(low)/X(q) W(high)/X(q)  e(spline) 
   0     11    11.607     8.553    0.18E-04    0.38E-05    0.11E-06
   0     11    11.607     8.106    0.25E-04    0.72E-05    0.23E-06
   1     11    11.607     4.160    0.64E-06    0.35E-05    0.82E-07
   1     11    11.607     3.597    0.15E-04    0.58E-05    0.16E-06
   2     10    11.607     8.183    0.53E-04    0.30E-03    0.10E-05
   2     10    11.607     6.077    0.37E-04    0.21E-03    0.69E-06
   3     10    11.607   116.013    0.17E-03    0.16E-04    0.46E-06
   3     10    11.607   108.937    0.17E-03    0.15E-04    0.47E-06
 Optimization of the real space projectors (new method)

 maximal supplied QI-value         = 14.36
 optimisation between [QCUT,QGAM] = [ 11.63, 23.27] = [ 37.90,151.59] Ry 
 Optimized for a Real-space Cutoff    1.53 Angstroem

   l    n(q)    QCUT    max X(q) W(low)/X(q) W(high)/X(q)  e(spline) 
   2     10    11.633   134.116    0.32E-03    0.99E-04    0.76E-06
   2     10    11.633   130.192    0.32E-03    0.10E-03    0.76E-06
   0     11    11.633    60.310    0.48E-04    0.11E-03    0.11E-05
   0     11    11.633    39.218    0.44E-04    0.98E-04    0.99E-06
   1     10    11.633    18.439    0.18E-03    0.59E-04    0.18E-06
   1     10    11.633    12.760    0.14E-03    0.48E-04    0.14E-06
 Optimization of the real space projectors (new method)

 maximal supplied QI-value         = 24.76
 optimisation between [QCUT,QGAM] = [ 11.64, 23.27] = [ 37.91,151.63] Ry 
 Optimized for a Real-space Cutoff    1.04 Angstroem

   l    n(q)    QCUT    max X(q) W(low)/X(q) W(high)/X(q)  e(spline) 
   0      7    11.635    20.381    0.14E-03    0.49E-03    0.18E-06
   0      7    11.635    15.268    0.16E-03    0.52E-03    0.19E-06
   1      7    11.635     5.964    0.30E-03    0.44E-03    0.22E-06
   1      7    11.635     5.382    0.27E-03    0.34E-03    0.19E-06
 Optimization of the real space projectors (new method)

 maximal supplied QI-value         = 34.20
 optimisation between [QCUT,QGAM] = [ 11.63, 23.26] = [ 37.87,151.49] Ry 
 Optimized for a Real-space Cutoff    1.14 Angstroem

   l    n(q)    QCUT    max X(q) W(low)/X(q) W(high)/X(q)  e(spline) 
   0      8    11.629    19.460    0.27E-03    0.65E-03    0.17E-06
   0      8    11.629    12.209    0.25E-03    0.62E-03    0.16E-06
   1      7    11.629     4.655    0.29E-03    0.85E-04    0.19E-06
  PAW_PBE Ce 23Dec2003                  :
 energy of atom  1       EATOM=-1063.0861
 kinetic energy error for atom=    0.0133 (will be added to EATOM!!)
  PAW_PBE Ir 06Sep2000                  :
 energy of atom  2       EATOM= -560.1833
 kinetic energy error for atom=    0.0013 (will be added to EATOM!!)
  PAW_PBE O 08Apr2002                   :
 energy of atom  3       EATOM= -432.3788
 kinetic energy error for atom=    0.0208 (will be added to EATOM!!)
  PAW_PBE H 15Jun2001                   :
 energy of atom  4       EATOM=  -12.4884
 kinetic energy error for atom=    0.0014 (will be added to EATOM!!)
 
 
 POSCAR: Generated by VASPKIT code
  positions in direct lattice
  No initial velocities read in
 IVDW         = 12
 VDW_S6       =    1.0000
 VDW_S8       =    0.7875
 VDW_A1       =    0.4289
 VDW_A2       =    4.4407
 VDW_RADIUS   =   50.2022 A
 VDW_CNRADIUS =   21.1671 A


 exchange-correlation table for PE
   RHO(1)=    0.500       N(1)  =     2000
   RHO(2)=  100.500       N(2)  =     4000
 


--------------------------------------------------------------------------------------------------------


 ion  position               nearest neighbor table
   1  0.001  1.000  0.359- 120 2.31 104 2.34  38 2.36  39 2.37  55 2.38  40 2.38 119 2.38
   2  0.167  0.083  0.208-  38 2.37  46 2.37 102 2.37  43 2.37  67 2.37  40 2.37  41 2.37  37 2.37

   3  0.245  0.995  0.357- 109 2.25 104 2.34 103 2.34  45 2.35  46 2.36  38 2.37  44 2.43
   4  0.417  0.083  0.208-  51 2.37 107 2.37  48 2.37  73 2.37  46 2.37  47 2.37  43 2.37  44 2.39

   5  0.497  0.002  0.360-  50 2.31 109 2.34  44 2.36 108 2.40  51 2.42  49 2.43 115 2.46 125 2.57

   6  0.667  0.083  0.208-  49 2.36  57 2.37 113 2.37  54 2.37  78 2.37  51 2.37  52 2.37  48 2.37

   7  0.757  0.003  0.358-  55 2.31  56 2.34 120 2.35 115 2.35  57 2.38 114 2.38  49 2.39
   8  0.917  0.083  0.208-  55 2.35  40 2.37 118 2.37  37 2.37  62 2.37  57 2.37  58 2.37  54 2.37

   9  0.999  0.250  0.358-  56 2.32  61 2.33  60 2.34  55 2.36  39 2.37  76 2.37  62 2.38
  10  0.167  0.333  0.208-  60 2.35  67 2.37  37 2.37  64 2.37  89 2.37  62 2.37  63 2.37  59 2.37

  11  0.247  0.251  0.361-  66 2.30  39 2.32  60 2.36  38 2.40  67 2.43  45 2.43  65 2.44
  12  0.417  0.333  0.208-  73 2.37  43 2.37  70 2.37  94 2.37  67 2.37  68 2.37  64 2.37  65 2.47

  13  0.503  0.248  0.362-  50 2.31  44 2.33  71 2.35  65 2.37  69 2.41  73 2.46  45 2.51  72 2.54

  14  0.667  0.333  0.208-  78 2.37  48 2.37  75 2.37 100 2.37  73 2.37  74 2.37  70 2.37  71 2.40

  15  0.751  0.250  0.358-  50 2.33  76 2.36  56 2.36  78 2.37  49 2.38  77 2.39  71 2.40
  16  0.917  0.333  0.208-  76 2.35  62 2.37  54 2.37  59 2.37  83 2.37  78 2.37  79 2.37  75 2.37

  17  0.001  0.500  0.359-  77 2.31  61 2.34  81 2.37  82 2.37  76 2.38  98 2.38  83 2.38
  18  0.167  0.583  0.208-  89 2.37  59 2.37  86 2.37 110 2.37  83 2.37  84 2.37  80 2.37  81 2.37

  19  0.245  0.495  0.357-  66 2.24  61 2.33  60 2.34  88 2.35  89 2.36  81 2.37  87 2.42
  20  0.417  0.583  0.208-  94 2.37  64 2.37  91 2.37 116 2.37  89 2.37  90 2.37  86 2.37  87 2.39

  21  0.497  0.502  0.360-  93 2.31  66 2.35  87 2.36  65 2.39  94 2.41  92 2.43  72 2.48 123 2.54

  22  0.667  0.583  0.208- 100 2.37  70 2.37  97 2.37 121 2.37  94 2.37  95 2.37  91 2.37  92 2.37

  23  0.757  0.503  0.358-  98 2.31  99 2.34  77 2.34  72 2.36 100 2.37  71 2.38  92 2.39
  24  0.917  0.583  0.208-  98 2.35  83 2.37  75 2.37  80 2.37 105 2.37 100 2.37 101 2.37  97 2.37

  25  0.999  0.750  0.358-  99 2.32 104 2.33 103 2.34  98 2.37 119 2.37  82 2.37 105 2.38
  26  0.167  0.833  0.208- 103 2.34 110 2.37  80 2.37 107 2.37  46 2.37 105 2.37 106 2.37 102 2.37

  27  0.247  0.752  0.360- 109 2.30  82 2.32 103 2.35  81 2.40 110 2.42 108 2.43  88 2.45 124 2.56

  28  0.417  0.833  0.208- 116 2.37  86 2.37 113 2.37  51 2.37 110 2.37 111 2.37 107 2.37 108 2.47

  29  0.503  0.749  0.362-  93 2.31  87 2.33 114 2.35 108 2.36 112 2.41 116 2.46 115 2.50  88 2.54

  30  0.667  0.833  0.208- 121 2.37  91 2.37 118 2.37  57 2.37 116 2.37 117 2.37 113 2.37 114 2.40

  31  0.751  0.750  0.358-  93 2.34 119 2.35  99 2.36 121 2.37 120 2.38  92 2.39 114 2.39
  32  0.917  0.833  0.208- 119 2.35 105 2.37  97 2.37 102 2.37  40 2.37 121 2.37 122 2.37 118 2.37

  33  0.580  0.919  0.501- 128 1.74  53 1.76 131 1.77 125 1.80 112 2.09 115 2.15 146 2.62
  34  0.330  0.671  0.502- 127 1.74  85 1.76 130 1.77 124 1.80 112 2.11  88 2.13
  35  0.578  0.421  0.502- 126 1.74  96 1.76 129 1.77 123 1.80  69 2.12  72 2.13
  36  0.333  0.169  0.501- 133 1.74  42 1.77 134 1.77 132 1.80  69 2.08  45 2.15
  37  0.083  0.167  0.170-  10 2.37   8 2.37   2 2.37
  38  0.167  0.084  0.320-   1 2.36   2 2.37   3 2.37  11 2.40
  39  0.083  0.167  0.396-  11 2.32   9 2.37   1 2.37
  40  0.000  0.000  0.245-   8 2.37  32 2.37   2 2.37   1 2.38
  41  0.167  0.083  0.095-   2 2.37
  42  0.209  0.069  0.504-  36 1.77
  43  0.333  0.167  0.170-  12 2.37   2 2.37   4 2.37
  44  0.417  0.087  0.321-  13 2.33   5 2.36   4 2.39   3 2.43
  45  0.325  0.158  0.399-  36 2.15   3 2.35  11 2.43  13 2.51
  46  0.250  0.000  0.245-   3 2.36   2 2.37  26 2.37   4 2.37
  47  0.417  0.083  0.095-   4 2.37
  48  0.583  0.167  0.170-  14 2.37   4 2.37   6 2.37
  49  0.667  0.082  0.320-   6 2.36  15 2.38   7 2.39   5 2.43
  50  0.586  0.166  0.394-   5 2.31  13 2.31  15 2.33
  51  0.500  0.000  0.245-   4 2.37  28 2.37   6 2.37   5 2.42
  52  0.667  0.083  0.095-   6 2.37
  53  0.679  0.043  0.506-  33 1.76
  54  0.833  0.167  0.170-  16 2.37   6 2.37   8 2.37
  55  0.918  0.084  0.320-   7 2.31   8 2.35   9 2.36   1 2.38
  56  0.836  0.168  0.395-   9 2.32   7 2.34  15 2.36
  57  0.750  0.000  0.245-   6 2.37  30 2.37   8 2.37   7 2.38
  58  0.917  0.083  0.095-   8 2.37
  59  0.083  0.417  0.170-  18 2.37  16 2.37  10 2.37
  60  0.163  0.331  0.319-  19 2.34   9 2.34  10 2.35  11 2.36
  61  0.081  0.414  0.395-  19 2.33   9 2.33  17 2.34
  62  0.000  0.250  0.245-  16 2.37   8 2.37  10 2.37   9 2.38
  63  0.167  0.333  0.095-  10 2.37
  64  0.333  0.417  0.170-  20 2.37  10 2.37  12 2.37
  65  0.420  0.332  0.325-  13 2.37  21 2.39  11 2.44  12 2.47
  66  0.327  0.417  0.389-  19 2.24  11 2.30  21 2.35
  67  0.250  0.250  0.245-  10 2.37   2 2.37  12 2.37  11 2.43
  68  0.417  0.333  0.095-  12 2.37
  69  0.476  0.275  0.472-  36 2.08  35 2.12  13 2.41
  70  0.583  0.417  0.170-  22 2.37  12 2.37  14 2.37
  71  0.666  0.335  0.322-  13 2.35  23 2.38  14 2.40  15 2.40
  72  0.595  0.427  0.402-  35 2.13  23 2.36  21 2.48  13 2.54
  73  0.500  0.250  0.245-  12 2.37   4 2.37  14 2.37  13 2.46
  74  0.667  0.333  0.095-  14 2.37
  75  0.833  0.417  0.170-  24 2.37  14 2.37  16 2.37
  76  0.916  0.333  0.320-  16 2.35  15 2.36   9 2.37  17 2.38
  77  0.838  0.419  0.394-  17 2.31  23 2.34  15 2.39
  78  0.750  0.250  0.245-  14 2.37   6 2.37  16 2.37  15 2.37
  79  0.917  0.333  0.095-  16 2.37
  80  0.083  0.667  0.170-  26 2.37  24 2.37  18 2.37
  81  0.167  0.584  0.320-  17 2.37  18 2.37  19 2.37  27 2.40
  82  0.083  0.667  0.396-  27 2.32  17 2.37  25 2.37
  83  0.000  0.500  0.245-  24 2.37  16 2.37  18 2.37  17 2.38
  84  0.167  0.583  0.095-  18 2.37
  85  0.206  0.572  0.508-  34 1.76
  86  0.333  0.667  0.170-  28 2.37  18 2.37  20 2.37
  87  0.416  0.587  0.321-  29 2.33  21 2.36  20 2.39  19 2.42
  88  0.323  0.656  0.401-  34 2.13  19 2.35  27 2.45  29 2.54
  89  0.250  0.500  0.245-  19 2.36  18 2.37  10 2.37  20 2.37
  90  0.417  0.583  0.095-  20 2.37
  91  0.583  0.667  0.170-  30 2.37  20 2.37  22 2.37
  92  0.667  0.582  0.320-  22 2.37  31 2.39  23 2.39  21 2.43
  93  0.585  0.666  0.393-  21 2.31  29 2.31  31 2.34
  94  0.500  0.500  0.245-  20 2.37  12 2.37  22 2.37  21 2.41
  95  0.667  0.583  0.095-  22 2.37
  96  0.675  0.546  0.510-  35 1.76
  97  0.833  0.667  0.170-  32 2.37  22 2.37  24 2.37
  98  0.918  0.584  0.320-  23 2.31  24 2.35  25 2.37  17 2.38
  99  0.835  0.668  0.395-  25 2.32  23 2.34  31 2.36
 100  0.750  0.500  0.245-  22 2.37  14 2.37  24 2.37  23 2.37
 101  0.917  0.583  0.095-  24 2.37
 102  0.083  0.917  0.170-   2 2.37  32 2.37  26 2.37
 103  0.163  0.831  0.319-  25 2.34   3 2.34  26 2.34  27 2.35
 104  0.081  0.914  0.395-  25 2.33   3 2.34   1 2.34
 105  0.000  0.750  0.245-  32 2.37  24 2.37  26 2.37  25 2.38
 106  0.167  0.833  0.095-  26 2.37
 107  0.333  0.917  0.170-   4 2.37  26 2.37  28 2.37
 108  0.419  0.831  0.325-  29 2.36   5 2.40  27 2.43  28 2.47
 109  0.328  0.917  0.389-   3 2.25  27 2.30   5 2.34
 110  0.250  0.750  0.245-  26 2.37  18 2.37  28 2.37  27 2.42
 111  0.417  0.833  0.095-  28 2.37
 112  0.476  0.775  0.471-  33 2.09  34 2.11  29 2.41
 113  0.583  0.917  0.170-   6 2.37  28 2.37  30 2.37
 114  0.667  0.835  0.322-  29 2.35   7 2.38  31 2.39  30 2.40
 115  0.594  0.926  0.400-  33 2.15   7 2.35   5 2.46  29 2.50
 116  0.500  0.750  0.245-  28 2.37  20 2.37  30 2.37  29 2.46
 117  0.667  0.833  0.095-  30 2.37
 118  0.833  0.917  0.170-   8 2.37  30 2.37  32 2.37
 119  0.916  0.833  0.319-  32 2.35  31 2.35  25 2.37   1 2.38
 120  0.838  0.918  0.394-   1 2.31   7 2.35  31 2.38
 121  0.750  0.750  0.245-  30 2.37  22 2.37  32 2.37  31 2.37
 122  0.917  0.833  0.095-  32 2.37
 123  0.486  0.452  0.476-  35 1.80  21 2.54
 124  0.298  0.763  0.477-  34 1.80  27 2.56
 125  0.487  0.951  0.477-  33 1.80   5 2.57
 126  0.533  0.384  0.579-  35 1.74
 127  0.366  0.713  0.579-  34 1.74
 128  0.541  0.885  0.580-  33 1.74
 129  0.658  0.370  0.493-  35 1.77
 130  0.383  0.593  0.491-  34 1.77
 131  0.657  0.866  0.490-  33 1.77
 132  0.300  0.261  0.479-  36 1.80
 133  0.365  0.205  0.580-  36 1.74 143 1.87
 134  0.387  0.093  0.488-  36 1.77
 135  0.619  0.399  0.744- 155 0.97 156 0.97
 136  0.769  0.319  0.677- 157 0.97 158 0.97
 137  0.917  0.548  0.744- 159 0.97 160 0.97
 138  0.067  0.623  0.744- 161 0.97 162 0.97 160 1.03
 139  0.318  0.648  0.750- 163 0.97 164 0.97
 140  0.418  0.556  0.690- 165 0.97 166 0.97 169 1.30
 141  0.799  0.816  0.737- 167 0.97 168 0.97 176 1.40 145 1.83
 142  0.458  0.472  0.619- 169 0.97 170 0.97
 143  0.404  0.266  0.659- 171 0.97 172 0.97 151 1.83 133 1.87
 144  0.196  0.424  0.652- 173 0.97 174 0.97
 145  0.717  0.705  0.690- 175 0.97 176 0.97 141 1.83
 146  0.579  0.085  0.523- 177 0.97 178 0.97  33 2.62
 147  0.300  0.714  0.659- 179 0.97 180 0.97
 148  0.887  0.240  0.547- 181 0.97 182 0.97
 149  0.112  0.146  0.744- 183 0.97 184 0.97
 150  0.262  0.119  0.656- 185 0.97 186 0.97
 151  0.411  0.295  0.744- 187 0.97 188 0.97 171 1.22 143 1.83
 152  0.242  0.947  0.652- 189 0.97 190 0.97
 153  0.088  0.697  0.617- 191 0.97 192 0.97
 154  0.580  0.841  0.806- 193 0.97 194 0.97
 155  0.596  0.430  0.775- 135 0.97
 156  0.691  0.438  0.747- 135 0.97
 157  0.746  0.350  0.708- 136 0.97
 158  0.841  0.358  0.680- 136 0.97
 159  0.894  0.579  0.775- 137 0.97
 160  0.990  0.587  0.747- 137 0.97 138 1.03
 161  0.044  0.654  0.775- 138 0.97
 162  0.139  0.662  0.747- 138 0.97
 163  0.295  0.678  0.781- 139 0.97
 164  0.391  0.687  0.753- 139 0.97
 165  0.395  0.586  0.721- 140 0.97
 166  0.491  0.595  0.693- 140 0.97
 167  0.776  0.847  0.768- 141 0.97
 168  0.872  0.855  0.740- 141 0.97
 169  0.435  0.503  0.649- 142 0.97 140 1.30
 170  0.530  0.511  0.621- 142 0.97
 171  0.382  0.296  0.690- 143 0.97 151 1.22
 172  0.477  0.305  0.662- 143 0.97
 173  0.173  0.455  0.682- 144 0.97
 174  0.269  0.463  0.654- 144 0.97
 175  0.694  0.736  0.721- 145 0.97
 176  0.789  0.744  0.693- 145 0.97 141 1.40
 177  0.556  0.116  0.554- 146 0.97
 178  0.652  0.124  0.526- 146 0.97
 179  0.278  0.744  0.690- 147 0.97
 180  0.373  0.753  0.662- 147 0.97
 181  0.865  0.271  0.578- 148 0.97
 182  0.960  0.280  0.549- 148 0.97
 183  0.089  0.176  0.775- 149 0.97
 184  0.184  0.185  0.747- 149 0.97
 185  0.239  0.150  0.687- 150 0.97
 186  0.334  0.158  0.658- 150 0.97
 187  0.388  0.326  0.775- 151 0.97
 188  0.483  0.334  0.747- 151 0.97
 189  0.219  0.978  0.682- 152 0.97
 190  0.314  0.986  0.654- 152 0.97
 191  0.065  0.728  0.648- 153 0.97
 192  0.161  0.736  0.619- 153 0.97
 193  0.558  0.871  0.837- 154 0.97
 194  0.653  0.880  0.809- 154 0.97
 
  LATTYP: Found a hexagonal cell.
 ALAT       =    15.4643000000
 C/A-ratio  =     1.3610832692
  
  Lattice vectors:
  
 A1 = (  15.4643000000,   0.0000000000,   0.0000000000)
 A2 = (  -7.7321500000,  13.3924766500,   0.0000000000)
 A3 = (   0.0000000000,   0.0000000000,  21.0482000000)


Analysis of symmetry for initial positions (statically):
=====================================================================
 Subroutine PRICEL returns:
 Original cell was already a primitive cell.
 

 Routine SETGRP: Setting up the symmetry group for a 
 hexagonal supercell.


 Subroutine GETGRP returns: Found  1 space group operations
 (whereof  1 operations were pure point group operations)
 out of a pool of 24 trial point group operations.


The static configuration has the point symmetry C_1 .


Analysis of symmetry for dynamics (positions and initial velocities):
=====================================================================
 Subroutine PRICEL returns:
 Original cell was already a primitive cell.
 

 Routine SETGRP: Setting up the symmetry group for a 
 hexagonal supercell.


 Subroutine GETGRP returns: Found  1 space group operations
 (whereof  1 operations were pure point group operations)
 out of a pool of 24 trial point group operations.


The dynamic configuration has the point symmetry C_1 .


Analysis of constrained symmetry for selective dynamics:
=====================================================================
 Subroutine PRICEL returns:
 Original cell was already a primitive cell.
 

 Routine SETGRP: Setting up the symmetry group for a 
 hexagonal supercell.


 Subroutine GETGRP returns: Found  1 space group operations
 (whereof  1 operations were pure point group operations)
 out of a pool of 24 trial point group operations.


The constrained configuration has the point symmetry C_1 .


Analysis of structural, dynamic, and magnetic symmetry:
=====================================================================
 Subroutine PRICEL returns:
 Original cell was already a primitive cell.
 

 Routine SETGRP: Setting up the symmetry group for a 
 hexagonal supercell.


 Subroutine GETGRP returns: Found  1 space group operations
 (whereof  1 operations were pure point group operations)
 out of a pool of 24 trial point group operations.


The overall configuration has the point symmetry C_1 .


 Subroutine INISYM returns: Found  1 space group operations
 (whereof  1 operations are pure point group operations),
 and found     1 'primitive' translations


----------------------------------------------------------------------------------------

                                     Primitive cell                                     

  volume of cell :    4359.1933

  direct lattice vectors                    reciprocal lattice vectors
    15.464300000  0.000000000  0.000000000     0.064665067  0.037334394  0.000000000
    -7.732150000 13.392476650  0.000000000     0.000000000  0.074668788  0.000000000
     0.000000000  0.000000000 21.048200000     0.000000000  0.000000000  0.047510001

  length of vectors
    15.464300000 15.464299998 21.048200000     0.074668788  0.074668788  0.047510001

  position of ions in fractional coordinates (direct lattice)
     0.000910000  0.999750000  0.358540000
     0.166670000  0.083330000  0.207810000
     0.245170000  0.995170000  0.357380000
     0.416670000  0.083330000  0.207810000
     0.497050000  0.001690000  0.360060000
     0.666670000  0.083330000  0.207810000
     0.756590000  0.003200000  0.358060000
     0.916670000  0.083330000  0.207810000
     0.999230000  0.249780000  0.358370000
     0.166670000  0.333330000  0.207810000
     0.247330000  0.251340000  0.360640000
     0.416670000  0.333330000  0.207810000
     0.502950000  0.248400000  0.362040000
     0.666670000  0.333330000  0.207810000
     0.751010000  0.249680000  0.358090000
     0.916670000  0.333330000  0.207810000
     0.001030000  0.499790000  0.358530000
     0.166670000  0.583330000  0.207810000
     0.244930000  0.494600000  0.357280000
     0.416670000  0.583330000  0.207810000
     0.496870000  0.501860000  0.359880000
     0.666670000  0.583330000  0.207810000
     0.757010000  0.503330000  0.357970000
     0.916670000  0.583330000  0.207810000
     0.999190000  0.749940000  0.358320000
     0.166670000  0.833330000  0.207810000
     0.247010000  0.751580000  0.360370000
     0.416670000  0.833330000  0.207810000
     0.503110000  0.748750000  0.362080000
     0.666670000  0.833330000  0.207810000
     0.750900000  0.749730000  0.358130000
     0.916670000  0.833330000  0.207810000
     0.579590000  0.918540000  0.501400000
     0.329980000  0.670860000  0.501770000
     0.578310000  0.421460000  0.502200000
     0.333320000  0.169330000  0.500960000
     0.083330000  0.166670000  0.170320000
     0.166890000  0.083760000  0.320280000
     0.083170000  0.166810000  0.395820000
     0.000000000  0.000000000  0.245300000
     0.166670000  0.083330000  0.095330000
     0.209230000  0.068960000  0.503690000
     0.333330000  0.166670000  0.170320000
     0.417010000  0.086820000  0.321160000
     0.324990000  0.157780000  0.398920000
     0.250000000  0.000000000  0.245300000
     0.416670000  0.083330000  0.095330000
     0.583330000  0.166670000  0.170320000
     0.667250000  0.082250000  0.320160000
     0.585910000  0.165780000  0.393510000
     0.500000000  0.000000000  0.245300000
     0.666670000  0.083330000  0.095330000
     0.678750000  0.042870000  0.505540000
     0.833330000  0.166670000  0.170320000
     0.918310000  0.084070000  0.319610000
     0.835780000  0.167910000  0.394720000
     0.750000000  0.000000000  0.245300000
     0.916670000  0.083330000  0.095330000
     0.083330000  0.416670000  0.170320000
     0.162850000  0.330560000  0.319200000
     0.081100000  0.414330000  0.394790000
     0.000000000  0.250000000  0.245300000
     0.166670000  0.333330000  0.095330000
     0.333330000  0.416670000  0.170320000
     0.420270000  0.332460000  0.324940000
     0.327430000  0.417040000  0.388790000
     0.250000000  0.250000000  0.245300000
     0.416670000  0.333330000  0.095330000
     0.476100000  0.274610000  0.471580000
     0.583330000  0.416670000  0.170320000
     0.666490000  0.335250000  0.321820000
     0.594830000  0.427410000  0.401720000
     0.500000000  0.250000000  0.245300000
     0.666670000  0.333330000  0.095330000
     0.833330000  0.416670000  0.170320000
     0.916160000  0.332900000  0.319510000
     0.837600000  0.418560000  0.394300000
     0.750000000  0.250000000  0.245300000
     0.916670000  0.333330000  0.095330000
     0.083330000  0.666670000  0.170320000
     0.167170000  0.583840000  0.320300000
     0.082880000  0.666750000  0.395790000
     0.000000000  0.500000000  0.245300000
     0.166670000  0.583330000  0.095330000
     0.205750000  0.572190000  0.507850000
     0.333330000  0.666670000  0.170320000
     0.416350000  0.586900000  0.321400000
     0.323330000  0.656430000  0.400900000
     0.250000000  0.500000000  0.245300000
     0.416670000  0.583330000  0.095330000
     0.583330000  0.666670000  0.170320000
     0.666990000  0.581730000  0.320290000
     0.585410000  0.665500000  0.393460000
     0.500000000  0.500000000  0.245300000
     0.666670000  0.583330000  0.095330000
     0.675200000  0.546120000  0.509520000
     0.833330000  0.666670000  0.170320000
     0.918350000  0.584110000  0.319620000
     0.835450000  0.667710000  0.394880000
     0.750000000  0.500000000  0.245300000
     0.916670000  0.583330000  0.095330000
     0.083330000  0.916670000  0.170320000
     0.162880000  0.830700000  0.319190000
     0.080840000  0.914110000  0.394510000
     0.000000000  0.750000000  0.245300000
     0.166670000  0.833330000  0.095330000
     0.333330000  0.916670000  0.170320000
     0.419180000  0.831260000  0.324960000
     0.327920000  0.917460000  0.388540000
     0.250000000  0.750000000  0.245300000
     0.416670000  0.833330000  0.095330000
     0.475730000  0.774750000  0.471490000
     0.583330000  0.916670000  0.170320000
     0.666730000  0.834820000  0.321710000
     0.593880000  0.926050000  0.399830000
     0.500000000  0.750000000  0.245300000
     0.666670000  0.833330000  0.095330000
     0.833330000  0.916670000  0.170320000
     0.915900000  0.832650000  0.319480000
     0.837570000  0.918450000  0.394290000
     0.750000000  0.750000000  0.245300000
     0.916670000  0.833330000  0.095330000
     0.485710000  0.451790000  0.475830000
     0.297600000  0.762770000  0.477020000
     0.487380000  0.950740000  0.477090000
     0.533450000  0.383790000  0.579000000
     0.366140000  0.712980000  0.579220000
     0.540560000  0.885220000  0.579610000
     0.657730000  0.370410000  0.493140000
     0.382700000  0.593250000  0.491060000
     0.657170000  0.865630000  0.490290000
     0.299500000  0.261180000  0.478660000
     0.365360000  0.204750000  0.579810000
     0.387300000  0.093210000  0.487670000
     0.618570000  0.398990000  0.743960000
     0.768850000  0.319130000  0.677410000
     0.917240000  0.548320000  0.743960000
     0.066580000  0.622990000  0.743960000
     0.318080000  0.647700000  0.749910000
     0.418160000  0.555740000  0.690150000
     0.799240000  0.815940000  0.737280000
     0.457880000  0.472260000  0.618510000
     0.404470000  0.265610000  0.659310000
     0.196220000  0.424360000  0.651520000
     0.716840000  0.705080000  0.690150000
     0.579180000  0.085020000  0.522920000
     0.300500000  0.713620000  0.659310000
     0.887460000  0.240430000  0.546590000
     0.111940000  0.145670000  0.743960000
     0.261530000  0.118940000  0.655610000
     0.410620000  0.295010000  0.743960000
     0.241580000  0.947040000  0.651520000
     0.088330000  0.697340000  0.616600000
     0.580480000  0.840720000  0.806430000
     0.595690000  0.429550000  0.774930000
     0.691080000  0.438070000  0.746650000
     0.745970000  0.349700000  0.708380000
     0.841360000  0.358220000  0.680100000
     0.894370000  0.578890000  0.774930000
     0.989760000  0.587410000  0.746650000
     0.043710000  0.653560000  0.774930000
     0.139100000  0.662080000  0.746650000
     0.295210000  0.678270000  0.780880000
     0.390600000  0.686780000  0.752600000
     0.395280000  0.586310000  0.721120000
     0.490670000  0.594830000  0.692840000
     0.776360000  0.846510000  0.768250000
     0.871750000  0.855020000  0.739970000
     0.435000000  0.502820000  0.649480000
     0.530390000  0.511340000  0.621190000
     0.381600000  0.296180000  0.690280000
     0.476980000  0.304700000  0.662000000
     0.173340000  0.454930000  0.682490000
     0.268730000  0.463450000  0.654210000
     0.693960000  0.735650000  0.721120000
     0.789350000  0.744160000  0.692840000
     0.556310000  0.115590000  0.553890000
     0.651700000  0.124110000  0.525610000
     0.277620000  0.744190000  0.690280000
     0.373010000  0.752710000  0.662000000
     0.864590000  0.271000000  0.577550000
     0.959980000  0.279520000  0.549270000
     0.089070000  0.176240000  0.774930000
     0.184460000  0.184760000  0.746650000
     0.238650000  0.149510000  0.686580000
     0.334040000  0.158030000  0.658300000
     0.387740000  0.325580000  0.774930000
     0.483130000  0.334090000  0.746650000
     0.218700000  0.977610000  0.682490000
     0.314090000  0.986130000  0.654210000
     0.065460000  0.727910000  0.647570000
     0.160850000  0.736420000  0.619280000
     0.557600000  0.871290000  0.837400000
     0.652990000  0.879810000  0.809120000

  ion indices of the primitive-cell ions
   primitive index   ion index
                 1           1
                 2           2
                 3           3
                 4           4
                 5           5
                 6           6
                 7           7
                 8           8
                 9           9
                10          10
                11          11
                12          12
                13          13
                14          14
                15          15
                16          16
                17          17
                18          18
                19          19
                20          20
                21          21
                22          22
                23          23
                24          24
                25          25
                26          26
                27          27
                28          28
                29          29
                30          30
                31          31
                32          32
                33          33
                34          34
                35          35
                36          36
                37          37
                38          38
                39          39
                40          40
                41          41
                42          42
                43          43
                44          44
                45          45
                46          46
                47          47
                48          48
                49          49
                50          50
                51          51
                52          52
                53          53
                54          54
                55          55
                56          56
                57          57
                58          58
                59          59
                60          60
                61          61
                62          62
                63          63
                64          64
                65          65
                66          66
                67          67
                68          68
                69          69
                70          70
                71          71
                72          72
                73          73
                74          74
                75          75
                76          76
                77          77
                78          78
                79          79
                80          80
                81          81
                82          82
                83          83
                84          84
                85          85
                86          86
                87          87
                88          88
                89          89
                90          90
                91          91
                92          92
                93          93
                94          94
                95          95
                96          96
                97          97
                98          98
                99          99
               100         100
               101         101
               102         102
               103         103
               104         104
               105         105
               106         106
               107         107
               108         108
               109         109
               110         110
               111         111
               112         112
               113         113
               114         114
               115         115
               116         116
               117         117
               118         118
               119         119
               120         120
               121         121
               122         122
               123         123
               124         124
               125         125
               126         126
               127         127
               128         128
               129         129
               130         130
               131         131
               132         132
               133         133
               134         134
               135         135
               136         136
               137         137
               138         138
               139         139
               140         140
               141         141
               142         142
               143         143
               144         144
               145         145
               146         146
               147         147
               148         148
               149         149
               150         150
               151         151
               152         152
               153         153
               154         154
               155         155
               156         156
               157         157
               158         158
               159         159
               160         160
               161         161
               162         162
               163         163
               164         164
               165         165
               166         166
               167         167
               168         168
               169         169
               170         170
               171         171
               172         172
               173         173
               174         174
               175         175
               176         176
               177         177
               178         178
               179         179
               180         180
               181         181
               182         182
               183         183
               184         184
               185         185
               186         186
               187         187
               188         188
               189         189
               190         190
               191         191
               192         192
               193         193
               194         194

----------------------------------------------------------------------------------------

 
 
 KPOINTS: K-Spacing Value to Generate K-Mesh: 0.03

Automatic generation of k-mesh.
 Grid dimensions read from file:
 generate k-points for:    1    1    1

 Generating k-lattice:

  Cartesian coordinates                     Fractional coordinates (reciprocal lattice)
     0.064665067  0.037334394  0.000000000     1.000000000  0.000000000  0.000000000
     0.000000000  0.074668788  0.000000000     0.000000000  1.000000000  0.000000000
     0.000000000  0.000000000  0.047510001     0.000000000  0.000000000  1.000000000

  Length of vectors
     0.074668788  0.074668788  0.047510001

  Shift w.r.t. Gamma in fractional coordinates (k-lattice)
     0.000000000  0.000000000  0.000000000

 
 Subroutine IBZKPT returns following result:
 ===========================================
 
 Found      1 irreducible k-points:
 
 Following reciprocal coordinates:
            Coordinates               Weight
  0.000000  0.000000  0.000000      1.000000
 
 Following cartesian coordinates:
            Coordinates               Weight
  0.000000  0.000000  0.000000      1.000000
 


--------------------------------------------------------------------------------------------------------




 Dimension of arrays:
   k-points           NKPTS =      1   k-points in BZ     NKDIM =      1   number of bands    NBANDS=    768
   number of dos      NEDOS =    301   number of ions     NIONS =    194
   non local maximal  LDIM  =      8   non local SUM 2l+1 LMDIM =     32
   total plane-waves  NPLWV = 972000
   max r-space proj   IRMAX =   3732   max aug-charges    IRDMAX= 129176
   dimension x,y,z NGX =    90 NGY =   90 NGZ =  120
   dimension x,y,z NGXF=   180 NGYF=  180 NGZF=  240
   support grid    NGXF=   360 NGYF=  360 NGZF=  480
   ions per type =              32   4 118  40
   NGX,Y,Z   is equivalent  to a cutoff of   9.68,  9.68,  9.48 a.u.
   NGXF,Y,Z  is equivalent  to a cutoff of  19.35, 19.35, 18.96 a.u.

 SYSTEM =  unknown system                          
 POSCAR =  Generated by VASPKIT code               

 Startparameter for this run:
   NWRITE =      2    write-flag & timer
   PREC   = normal    normal or accurate (medium, high low for compatibility)
   ISTART =      0    job   : 0-new  1-cont  2-samecut
   ICHARG =      2    charge: 1-file 2-atom 10-const
   ISPIN  =      2    spin polarized calculation?
   LNONCOLLINEAR =      F non collinear calculations
   LSORBIT =      F    spin-orbit coupling
   INIWAV =      1    electr: 0-lowe 1-rand  2-diag
   LASPH  =      T    aspherical Exc in radial PAW
 Electronic Relaxation 1
   ENCUT  =  520.0 eV  38.22 Ry    6.18 a.u.  28.75 28.75 39.14*2*pi/ulx,y,z
   ENINI  =  520.0     initial cutoff
   ENAUG  =  605.4 eV  augmentation charge cutoff
   NELM   =     90;   NELMIN=  6; NELMDL=  0     # of ELM steps 
   EDIFF  = 0.1E-03   stopping-criterion for ELM
   LREAL  =      T    real-space projection
   NLSPLINE    = F    spline interpolate recip. space projectors
   LCOMPAT=      F    compatible to vasp.4.4
   GGA_COMPAT  = T    GGA compatible to vasp.4.4-vasp.4.6
   LMAXPAW     = -100 max onsite density
   LMAXMIX     =    6 max onsite mixed and CHGCAR
   VOSKOWN=      0    Vosko Wilk Nusair interpolation
   ROPT   =   -0.00050  -0.00050  -0.00050  -0.00050
 Ionic relaxation
   EDIFFG = -.2E-01   stopping-criterion for IOM
   NSW    =    300    number of steps for IOM
   NBLOCK =      1;   KBLOCK =      1    inner block; outer block 
   IBRION =      0    ionic relax: 0-MD 1-quasi-New 2-CG
   NFREE  =      0    steps in history (QN), initial steepest desc. (CG)
   ISIF   =      2    stress and relaxation
   IWAVPR =     12    prediction:  0-non 1-charg 2-wave 3-comb
   ISYM   =      2    0-nonsym 1-usesym 2-fastsym
   LCORR  =      T    Harris-Foulkes like correction to forces

   POTIM  =20.0000    time-step for ionic-motion
   TEIN   =  300.0    initial temperature
   TEBEG  =  300.0;   TEEND  = 300.0 temperature during run
   SMASS  =  -3.00    Nose mass-parameter (am)
   estimated Nose-frequenzy (Omega)   =  0.10E-29 period in steps = 0.31E+45 mass=  -0.547E-26a.u.
   SCALEE = 1.0000    scale energy and forces
   NPACO  =    256;   APACO  = 10.0  distance and # of slots for P.C.
   PSTRESS=    0.0 pullay stress

  Mass of Ions in am
   POMASS = 140.12192.22 16.00  1.00
  Ionic Valenz
   ZVAL   =  12.00  9.00  6.00  1.00
  Atomic Wigner-Seitz radii
   RWIGS  =  -1.00 -1.00 -1.00 -1.00
  virtual crystal weights 
   VCA    =   1.00  1.00  1.00  1.00
   NELECT =    1168.0000    total number of electrons
   NUPDOWN=      -1.0000    fix difference up-down

 DOS related values:
   EMIN   =  10.00;   EMAX   =-10.00  energy-range for DOS
   EFERMI =   0.00;   METHOD = LEGACY      
   ISMEAR =     0;   SIGMA  =   0.05  broadening in eV -4-tet -1-fermi 0-gaus

 Electronic relaxation 2 (details)
   IALGO  =     68    algorithm
   LDIAG  =      T    sub-space diagonalisation (order eigenvalues)
   LSUBROT=      F    optimize rotation matrix (better conditioning)
   TURBO    =      0    0=normal 1=particle mesh
   IRESTART =      0    0=no restart 2=restart with 2 vectors
   NREBOOT  =      0    no. of reboots
   NMIN     =      0    reboot dimension
   EREF     =   0.00    reference energy to select bands
   IMIX   =      4    mixing-type and parameters
     AMIX     =   0.40;   BMIX     =  1.00
     AMIX_MAG =   1.60;   BMIX_MAG =  1.00
     AMIN     =   0.10
     WC   =   100.;   INIMIX=   1;  MIXPRE=   1;  MAXMIX= -45

 Intra band minimization:
   WEIMIN = 0.0010     energy-eigenvalue tresh-hold
   EBREAK =  0.33E-07  absolut break condition
   DEPER  =   0.30     relativ break condition  

   TIME   =   0.40     timestep for ELM

  volume/ion in A,a.u.               =      22.47       151.64
  Fermi-wavevector in a.u.,A,eV,Ry     =   1.055408  1.994432 15.155341  1.113886
  Thomas-Fermi vector in A             =   2.190605
 
 Write flags
   LWAVE        =      F    write WAVECAR
   LDOWNSAMPLE  =      F    k-point downsampling of WAVECAR
   LCHARG       =      F    write CHGCAR
   LVTOT        =      F    write LOCPOT, total local potential
   LVHAR        =      F    write LOCPOT, Hartree potential only
   WRT_POTENTIAL= false  ! write potential to hdf5 file
   LELF         =      F    write electronic localiz. function (ELF)
   LORBIT       =      0    0 simple, 1 ext, 2 COOP (PROOUT), +10 PAW based schemes


 Dipole corrections
   LMONO      =      F    monopole corrections only (constant potential shift)
   LDIPOL     =      F    correct potential (dipole corrections)
   IDIPOL     =      0    1-x, 2-y, 3-z, 4-all directions 
   EPSILON    =  1.0000000 bulk dielectric constant
   LVACPOTAV  =      F  vacuum potentials using an averaging scheme for the charge density
   VACPOTFLAT =  0.1000000 required flatness to determine vacuum potential
 LDA+U is selected, type is set to LDAUTYPE =  2
   angular momentum for each species LDAUL =     3    2   -1   -1
   U (eV)           for each species LDAUU =   5.0  2.0  0.0  0.0
   J (eV)           for each species LDAUJ =   0.0  0.0  0.0  0.0
 Exchange correlation treatment:
   GGA     = PE    functional components
   XC_C    = 1    coefficients multiplying the functional components
   LIBXC   =     F    Libxc                    
   VOSKOWN =     0    Vosko Wilk Nusair interpolation
   LHFCALC =     F    Hartree Fock is set to
   LHFONE  =     F    Hartree Fock one center treatment
   AEXX    =    0.0000 exact exchange contribution

 Parameters of functionals:
   PE:
     No parameter
 
 Van der Waals corrections
   IVDW    =    12    specifies the selected vdW correction

 Linear response parameters
   LEPSILON=     F    determine dielectric tensor
   LRPA    =     F    only Hartree local field effects (RPA)
   LNABLA  =     F    use nabla operator in PAW spheres
   LVEL    =     F    velocity operator in full k-point grid
   CSHIFT  =0.1000    complex shift for real part using Kramers Kronig
   OMEGAMAX=  -1.0    maximum frequency
   DEG_THRESHOLD= 0.2000000E-02 threshold for treating states as degnerate
   RTIME   =   -0.100 relaxation time in fs
  (WPLASMAI=    0.000 imaginary part of plasma frequency in eV, 0.658/RTIME)
   DFIELD  = 0.0000000 0.0000000 0.0000000 field for delta impulse in time
 
  Optional k-point grid parameters
   LKPOINTS_OPT  =     F    use optional k-point grid
   KPOINTS_OPT_MODE=     1    mode for optional k-point grid
 
 Orbital magnetization related:
   ORBITALMAG=     F  switch on orbital magnetization
   LCHIMAG   =     F  perturbation theory with respect to B field
   DQ        =  0.001000  dq finite difference perturbation B field
   LLRAUG    =     F  two centre corrections for induced B field
   LBONE     =     F  B-component reconstruction in AE one-centre
   LVGVCALC  =     T  calculate vGv susceptibility
   LVGVAPPL  =     F  apply vGv susceptibility instead of pGv for G=0

 Random number generation:
   RANDOM_GENERATOR = DEFAULT
   PCG_SEED         = not used


--------------------------------------------------------------------------------------------------------


 molecular dynamics for ions
   using a microcanonical ensemble
   using selective dynamics as specified on POSCAR
 charge density and potential will be updated during run
 spin polarized calculation
 RMM-DIIS sequential band-by-band and
  variant of blocked Davidson during initial phase
 perform sub-space diagonalisation
    before iterative eigenvector-optimisation
 modified Broyden-mixing scheme, WC =      100.0
 initial mixing is a Kerker type mixing with AMIX =  0.4000 and BMIX =      1.0000
 Hartree-type preconditioning will be used
 using additional bands          184
 real space projection scheme for non local part
 use partial core corrections
 calculate Harris-corrections to forces 
   (improved forces if not selfconsistent)
 use gradient corrections 
 use of overlap-Matrix (Vanderbilt PP)
 Gauss-broadening in eV      SIGMA  =   0.05


--------------------------------------------------------------------------------------------------------


  energy-cutoff  :      520.00
  volume of cell :     4359.19
      direct lattice vectors                 reciprocal lattice vectors
    15.464300000  0.000000000  0.000000000     0.064665067  0.037334394  0.000000000
    -7.732150000 13.392476650  0.000000000     0.000000000  0.074668788  0.000000000
     0.000000000  0.000000000 21.048200000     0.000000000  0.000000000  0.047510001

  length of vectors
    15.464300000 15.464299998 21.048200000     0.074668788  0.074668788  0.047510001


 
 k-points in units of 2pi/SCALE and weight: K-Spacing Value to Generate K-Mesh: 0.03
   0.00000000  0.00000000  0.00000000       1.000
 
 k-points in reciprocal lattice and weights: K-Spacing Value to Generate K-Mesh: 0.03
   0.00000000  0.00000000  0.00000000       1.000
 
 position of ions in fractional coordinates (direct lattice) 
   0.00091000  0.99975000  0.35854000
   0.16667000  0.08333000  0.20781000
   0.24517000  0.99517000  0.35738000
   0.41667000  0.08333000  0.20781000
   0.49705000  0.00169000  0.36006000
   0.66667000  0.08333000  0.20781000
   0.75659000  0.00320000  0.35806000
   0.91667000  0.08333000  0.20781000
   0.99923000  0.24978000  0.35837000
   0.16667000  0.33333000  0.20781000
   0.24733000  0.25134000  0.36064000
   0.41667000  0.33333000  0.20781000
   0.50295000  0.24840000  0.36204000
   0.66667000  0.33333000  0.20781000
   0.75101000  0.24968000  0.35809000
   0.91667000  0.33333000  0.20781000
   0.00103000  0.49979000  0.35853000
   0.16667000  0.58333000  0.20781000
   0.24493000  0.49460000  0.35728000
   0.41667000  0.58333000  0.20781000
   0.49687000  0.50186000  0.35988000
   0.66667000  0.58333000  0.20781000
   0.75701000  0.50333000  0.35797000
   0.91667000  0.58333000  0.20781000
   0.99919000  0.74994000  0.35832000
   0.16667000  0.83333000  0.20781000
   0.24701000  0.75158000  0.36037000
   0.41667000  0.83333000  0.20781000
   0.50311000  0.74875000  0.36208000
   0.66667000  0.83333000  0.20781000
   0.75090000  0.74973000  0.35813000
   0.91667000  0.83333000  0.20781000
   0.57959000  0.91854000  0.50140000
   0.32998000  0.67086000  0.50177000
   0.57831000  0.42146000  0.50220000
   0.33332000  0.16933000  0.50096000
   0.08333000  0.16667000  0.17032000
   0.16689000  0.08376000  0.32028000
   0.08317000  0.16681000  0.39582000
   0.00000000  0.00000000  0.24530000
   0.16667000  0.08333000  0.09533000
   0.20923000  0.06896000  0.50369000
   0.33333000  0.16667000  0.17032000
   0.41701000  0.08682000  0.32116000
   0.32499000  0.15778000  0.39892000
   0.25000000  0.00000000  0.24530000
   0.41667000  0.08333000  0.09533000
   0.58333000  0.16667000  0.17032000
   0.66725000  0.08225000  0.32016000
   0.58591000  0.16578000  0.39351000
   0.50000000  0.00000000  0.24530000
   0.66667000  0.08333000  0.09533000
   0.67875000  0.04287000  0.50554000
   0.83333000  0.16667000  0.17032000
   0.91831000  0.08407000  0.31961000
   0.83578000  0.16791000  0.39472000
   0.75000000  0.00000000  0.24530000
   0.91667000  0.08333000  0.09533000
   0.08333000  0.41667000  0.17032000
   0.16285000  0.33056000  0.31920000
   0.08110000  0.41433000  0.39479000
   0.00000000  0.25000000  0.24530000
   0.16667000  0.33333000  0.09533000
   0.33333000  0.41667000  0.17032000
   0.42027000  0.33246000  0.32494000
   0.32743000  0.41704000  0.38879000
   0.25000000  0.25000000  0.24530000
   0.41667000  0.33333000  0.09533000
   0.47610000  0.27461000  0.47158000
   0.58333000  0.41667000  0.17032000
   0.66649000  0.33525000  0.32182000
   0.59483000  0.42741000  0.40172000
   0.50000000  0.25000000  0.24530000
   0.66667000  0.33333000  0.09533000
   0.83333000  0.41667000  0.17032000
   0.91616000  0.33290000  0.31951000
   0.83760000  0.41856000  0.39430000
   0.75000000  0.25000000  0.24530000
   0.91667000  0.33333000  0.09533000
   0.08333000  0.66667000  0.17032000
   0.16717000  0.58384000  0.32030000
   0.08288000  0.66675000  0.39579000
   0.00000000  0.50000000  0.24530000
   0.16667000  0.58333000  0.09533000
   0.20575000  0.57219000  0.50785000
   0.33333000  0.66667000  0.17032000
   0.41635000  0.58690000  0.32140000
   0.32333000  0.65643000  0.40090000
   0.25000000  0.50000000  0.24530000
   0.41667000  0.58333000  0.09533000
   0.58333000  0.66667000  0.17032000
   0.66699000  0.58173000  0.32029000
   0.58541000  0.66550000  0.39346000
   0.50000000  0.50000000  0.24530000
   0.66667000  0.58333000  0.09533000
   0.67520000  0.54612000  0.50952000
   0.83333000  0.66667000  0.17032000
   0.91835000  0.58411000  0.31962000
   0.83545000  0.66771000  0.39488000
   0.75000000  0.50000000  0.24530000
   0.91667000  0.58333000  0.09533000
   0.08333000  0.91667000  0.17032000
   0.16288000  0.83070000  0.31919000
   0.08084000  0.91411000  0.39451000
   0.00000000  0.75000000  0.24530000
   0.16667000  0.83333000  0.09533000
   0.33333000  0.91667000  0.17032000
   0.41918000  0.83126000  0.32496000
   0.32792000  0.91746000  0.38854000
   0.25000000  0.75000000  0.24530000
   0.41667000  0.83333000  0.09533000
   0.47573000  0.77475000  0.47149000
   0.58333000  0.91667000  0.17032000
   0.66673000  0.83482000  0.32171000
   0.59388000  0.92605000  0.39983000
   0.50000000  0.75000000  0.24530000
   0.66667000  0.83333000  0.09533000
   0.83333000  0.91667000  0.17032000
   0.91590000  0.83265000  0.31948000
   0.83757000  0.91845000  0.39429000
   0.75000000  0.75000000  0.24530000
   0.91667000  0.83333000  0.09533000
   0.48571000  0.45179000  0.47583000
   0.29760000  0.76277000  0.47702000
   0.48738000  0.95074000  0.47709000
   0.53345000  0.38379000  0.57900000
   0.36614000  0.71298000  0.57922000
   0.54056000  0.88522000  0.57961000
   0.65773000  0.37041000  0.49314000
   0.38270000  0.59325000  0.49106000
   0.65717000  0.86563000  0.49029000
   0.29950000  0.26118000  0.47866000
   0.36536000  0.20475000  0.57981000
   0.38730000  0.09321000  0.48767000
   0.61857000  0.39899000  0.74396000
   0.76885000  0.31913000  0.67741000
   0.91724000  0.54832000  0.74396000
   0.06658000  0.62299000  0.74396000
   0.31808000  0.64770000  0.74991000
   0.41816000  0.55574000  0.69015000
   0.79924000  0.81594000  0.73728000
   0.45788000  0.47226000  0.61851000
   0.40447000  0.26561000  0.65931000
   0.19622000  0.42436000  0.65152000
   0.71684000  0.70508000  0.69015000
   0.57918000  0.08502000  0.52292000
   0.30050000  0.71362000  0.65931000
   0.88746000  0.24043000  0.54659000
   0.11194000  0.14567000  0.74396000
   0.26153000  0.11894000  0.65561000
   0.41062000  0.29501000  0.74396000
   0.24158000  0.94704000  0.65152000
   0.08833000  0.69734000  0.61660000
   0.58048000  0.84072000  0.80643000
   0.59569000  0.42955000  0.77493000
   0.69108000  0.43807000  0.74665000
   0.74597000  0.34970000  0.70838000
   0.84136000  0.35822000  0.68010000
   0.89437000  0.57889000  0.77493000
   0.98976000  0.58741000  0.74665000
   0.04371000  0.65356000  0.77493000
   0.13910000  0.66208000  0.74665000
   0.29521000  0.67827000  0.78088000
   0.39060000  0.68678000  0.75260000
   0.39528000  0.58631000  0.72112000
   0.49067000  0.59483000  0.69284000
   0.77636000  0.84651000  0.76825000
   0.87175000  0.85502000  0.73997000
   0.43500000  0.50282000  0.64948000
   0.53039000  0.51134000  0.62119000
   0.38160000  0.29618000  0.69028000
   0.47698000  0.30470000  0.66200000
   0.17334000  0.45493000  0.68249000
   0.26873000  0.46345000  0.65421000
   0.69396000  0.73565000  0.72112000
   0.78935000  0.74416000  0.69284000
   0.55631000  0.11559000  0.55389000
   0.65170000  0.12411000  0.52561000
   0.27762000  0.74419000  0.69028000
   0.37301000  0.75271000  0.66200000
   0.86459000  0.27100000  0.57755000
   0.95998000  0.27952000  0.54927000
   0.08907000  0.17624000  0.77493000
   0.18446000  0.18476000  0.74665000
   0.23865000  0.14951000  0.68658000
   0.33404000  0.15803000  0.65830000
   0.38774000  0.32558000  0.77493000
   0.48313000  0.33409000  0.74665000
   0.21870000  0.97761000  0.68249000
   0.31409000  0.98613000  0.65421000
   0.06546000  0.72791000  0.64757000
   0.16085000  0.73642000  0.61928000
   0.55760000  0.87129000  0.83740000
   0.65299000  0.87981000  0.80912000
 
 position of ions in cartesian coordinates  (Angst):
  -7.71614445 13.38912853  7.54662163
   1.93311482  1.11599508  4.37402644
  -3.90342128 13.32779099  7.52220572
   5.79918982  1.11599508  4.37402644
   7.67346298  0.02263329  7.57861489
   9.66526482  1.11599508  4.37402644
  11.67539186  0.04285593  7.53651849
  13.53133982  1.11599508  4.37402644
  13.52105606  3.34517282  7.54304343
   0.00007732  4.46411424  4.37402644
   1.88138674  3.36606508  7.59082285
   3.86615232  4.46411424  4.37402644
   5.85710363  3.32669120  7.62029033
   7.73222732  4.46411424  4.37402644
   9.68328073  3.34383357  7.53714994
  11.59830232  4.46411424  4.37402644
  -3.84852302  6.69342590  7.54641115
  -1.93296018  7.81223340  4.37402644
  -0.03665039  6.62391895  7.52010090
   1.93311482  7.81223340  4.37402644
   3.80328994  6.72114833  7.57482622
   5.79918982  7.81223340  4.37402644
   7.81480668  6.74083527  7.53462415
   9.66526482  7.81223340  4.37402644
   9.65312535 10.04355394  7.54199102
  -3.86599768 11.16035257  4.37402644
  -1.99149255 10.06551760  7.58513983
   0.00007732 11.16035257  4.37402644
   1.99079666 10.02761689  7.62113226
   3.86615232 11.16035257  4.37402644
   5.81511805 10.04074152  7.53799187
   7.73222732 11.16035257  4.37402644
   1.86066458 12.30152550 10.55356748
  -0.08428043  8.98447689 10.56135531
   5.68436739  5.64439321 10.57040604
   3.84527552  2.26774807 10.54430627
  -0.00007732  2.23212408  3.58492942
   1.93319214  1.12175384  6.74131750
  -0.00363411  2.23399903  8.33129852
   0.00000000  0.00000000  5.16312346
   1.93311482  1.11599508  2.00652491
   2.70238642  0.92354519 10.60176786
   3.86599768  2.23212408  3.58492942
   5.77746248  1.16273482  6.75983991
   3.80576423  2.11306497  8.39654794
   3.86607500  0.00000000  5.16312346
   5.79918982  1.11599508  2.00652491
   7.73207268  2.23212408  3.58492942
   9.68258484  1.10153120  6.73879171
   7.77885219  2.22020478  8.28267718
   7.73215000  0.00000000  5.16312346
   9.66526482  1.11599508  2.00652491
  10.16491635  0.57413547 10.64070703
  11.59814768  2.23212408  3.58492942
  13.55097948  1.12590551  6.72721520
  11.62644735  2.24873075  8.30814550
  11.59822500  0.00000000  5.16312346
  13.53133982  1.11599508  2.00652491
  -1.93311482  5.58024325  3.58492942
  -0.03757825  4.42701708  6.71858544
  -1.94950698  5.54890485  8.30961888
  -1.93303750  3.34811916  5.16312346
   0.00007732  4.46411424  2.00652491
   1.93296018  5.58024325  3.58492942
   3.92855077  4.45246279  6.83940211
   1.83885991  5.58519846  8.18332968
   1.93303750  3.34811916  5.16312346
   3.86615232  4.46411424  2.00652491
   5.23922752  3.67770801  9.92591016
   5.79903518  5.58024325  3.58492942
   7.71459802  4.48982780  6.77373172
   5.89383134  5.72407844  8.45548290
   5.79911250  3.34811916  5.16312346
   7.73222732  4.46411424  2.00652491
   9.66511018  5.58024325  3.58492942
  11.59374035  4.45835548  6.72511038
   9.71652898  5.60555503  8.29930526
   9.66518750  3.34811916  5.16312346
  11.59830232  4.46411424  2.00652491
  -3.86615232  8.92836241  3.58492942
  -1.92917143  7.81906357  6.74173846
  -3.87372983  8.92943381  8.33066708
  -3.86607500  6.69623833  5.16312346
  -1.93296018  7.81223340  2.00652491
  -1.24247918  7.66304121 10.68932837
  -0.00007732  8.92836241  3.58492942
   1.90056247  7.86004455  6.76489148
  -0.07554311  8.79122345  8.43822338
   0.00000000  6.69623833  5.16312346
   1.93311482  7.81223340  2.00652491
   3.86599768  8.92836241  3.58492942
   5.81650984  7.79080544  6.74152798
   3.90721004  8.91269321  8.28162477
   3.86607500  6.69623833  5.16312346
   5.79918982  7.81223340  2.00652491
   6.21881360  7.31389935 10.72447886
   7.73207268  8.92836241  3.58492942
   9.68521377  7.82267954  6.72742568
   7.75681556  8.94229058  8.31151322
   7.73215000  6.69623833  5.16312346
   9.66526482  7.81223340  2.00652491
  -5.79918982 12.27648157  3.58492942
  -3.90427182 11.12513035  6.71837496
  -5.81790162 12.24219683  8.30372538
  -5.79911250 10.04435749  5.16312346
  -3.86599768 11.16035257  2.00652491
  -1.93311482 12.27648157  3.58492942
   0.05489826 11.13263014  6.83982307
  -2.02288508 12.28706163  8.17806763
  -1.93303750 10.04435749  5.16312346
   0.00007732 11.16035257  2.00652491
   1.36634823 10.37582128  9.92401582
   1.93296018 12.27648157  3.58492942
   3.85555928 11.18030736  6.77141642
   2.02358098 12.40210300  8.41570181
   1.93303750 10.04435749  5.16312346
   3.86615232 11.16035257  2.00652491
   5.79903518 12.27648157  3.58492942
   7.72557767 11.15124568  6.72447894
   5.85084058 12.30032018  8.29909478
   5.79911250 10.04435749  5.16312346
   7.73222732 11.16035257  2.00652491
   4.01785710  6.05058703 10.01536501
  -1.29567638 10.21537941 10.04041236
   0.18572624 12.73276325 10.04188574
   5.28190899  5.13989861 12.18690780
   0.14923050  9.54856800 12.19153840
   1.51472819 11.85528818 12.19974720
   7.30726836  4.96070728 10.37970935
   1.33108962  7.94508677 10.33592909
   3.46949303 11.59292956 10.31972198
   2.61207491  3.49784705 10.07493141
   4.06687894  2.74210959 12.20395684
   5.26860969  1.24831275 10.26457569
   6.48070152  5.34346426 15.65901887
   9.42216603  4.27394107 14.25826116
   9.94478204  7.34336280 15.65901887
  -3.78743903  8.34337903 15.65901887
  -0.08922901  8.67430713 15.78425566
   2.16948665  7.44273497 14.52641523
   6.05071666 10.92745740 15.51841690
   3.42920853  6.32473102 13.01852218
   4.20110906  3.55717572 13.87728874
  -0.24681023  5.68323139 13.71332326
   5.63364449  9.44276744 14.52641523
   8.29922588  1.13862836 11.00652474
  -0.87079473  9.55713919 13.87728874
  11.86490685  3.21995316 11.50473564
   0.60473145  1.95088207 15.65901887
   3.12471646  1.59290117 13.79941040
   4.06888929  3.95091454 15.65901887
  -3.58678974 12.68321109 13.71332326
  -4.02597586  9.33910967 12.97832012
   2.47614372 11.25932297 16.97389993
   5.89058383  5.75273835 16.31088163
   7.29984549  5.86684225 15.71563853
   8.83197102  4.68334908 14.91012392
  10.24123268  4.79745299 14.31488082
   9.35474168  7.75277081 16.31088163
  10.76400334  7.86687471 15.71563853
  -4.37747940  8.75278704 16.31088163
  -2.96821774  8.86689094 15.71563853
  -0.67926938  9.08371514 16.43611842
   0.73006960  9.19768511 15.84087532
   1.57929164  7.85214298 15.17827798
   2.98855330  7.96624689 14.58303489
   5.46052165 11.33686541 16.17027965
   6.86986063 11.45083539 15.57503655
   2.83909084  6.73400511 13.67038494
   4.24835250  6.84810901 13.07493136
   3.61106869  3.96658373 14.52915150
   5.02017571  4.08068764 13.93390840
  -0.83700524  6.09263940 14.36518602
   0.57225642  6.20674330 13.76994292
   5.04344948  9.85217545 15.17827798
   6.45278846  9.96614542 14.58303489
   7.70918551  1.54803638 11.65838750
   9.11844717  1.66214028 11.06314440
  -1.46098974  9.96654720 14.52915150
  -0.05172808 10.08065110 13.93390840
  11.27486649  3.62936117 12.15638791
  12.68412815  3.74346507 11.56114481
   0.01469108  2.36029008 16.31088163
   1.42395274  2.47439399 15.71563853
   2.53452145  2.00230918 14.45127316
   3.94378311  2.11641308 13.85603006
   3.47869428  4.36032255 16.31088163
   4.88803327  4.47429252 15.71563853
  -4.17698475 13.09261910 14.36518602
  -2.76772309 13.20672300 13.76994292
  -4.61601623  9.74851768 13.63018287
  -3.20667725  9.86248765 13.03472930
   1.88594871 11.66873098 17.62576268
   3.29521037 11.78283488 17.03051958
 


--------------------------------------------------------------------------------------------------------


 use parallel FFT for orbitals z direction half grid
 k-point     1 :   0.0000 0.0000 0.0000  plane waves:   58720

 maximum and minimum number of plane-waves per node :     14686    14674

 maximum number of plane-waves:     58720
 maximum index in each direction: 
   IXMAX=   28   IYMAX=   28   IZMAX=   39
   IXMIN=  -28   IYMIN=  -28   IZMIN=    0


 real space projection operators:
  total allocation   :      40122.52 KBytes
  max/ min on nodes  :      10271.02       9788.33


 parallel 3D FFT for wavefunctions:
    minimum data exchange during FFTs selected (reduces bandwidth)
 parallel 3D FFT for charge:
    minimum data exchange during FFTs selected (reduces bandwidth)


 total amount of memory used by VASP MPI-rank0    88421. kBytes
=======================================================================

   base      :      30000. kBytes
   nonlr-proj:      12603. kBytes
   fftplans  :      11629. kBytes
   grid      :      24114. kBytes
   one-center:       2408. kBytes
   wavefun   :       7667. kBytes
 
     INWAV:  cpu time      0.0000: real time      0.0000
 Broyden mixing: mesh for mixing (old mesh)
   NGX = 57   NGY = 57   NGZ = 79
  (NGX  =180   NGY  =180   NGZ  =240)
  gives a total of 256671 points

 initial charge density was supplied:
 charge density of overlapping atoms calculated
 number of electron    1168.0000000 magnetization     105.6000000
 keeping initial charge density in first step


--------------------------------------------------------------------------------------------------------


 Maximum index for non-local projection operator         1021
 Maximum index for augmentation-charges         2215 (set IRDMAX)


--------------------------------------------------------------------------------------------------------


 First call to EWALD:  gamma=   0.109
 Maximum number of real-space cells 3x 3x 2
 Maximum number of reciprocal cells 3x 3x 3

    FEWALD:  cpu time      0.0042: real time      0.0042


--------------------------------------- Ionic step        1  -------------------------------------------




--------------------------------------- Iteration      1(   1)  ---------------------------------------


    POTLOK:  cpu time      0.1170: real time      0.1225
    SETDIJ:  cpu time      0.9873: real time      0.9899
     EDDAV:  cpu time      3.2482: real time      3.2823
       DOS:  cpu time      0.0112: real time      0.0115
    --------------------------------------------
      LOOP:  cpu time      4.3639: real time      4.4064

 eigenvalue-minimisations  :  3072
 total energy-change (2. order) : 0.2147511E+05  (-0.5296823E+05)
 number of electron    1168.0000000 magnetization     105.6000000
 augmentation part     1168.0000000 magnetization     105.6000000

 Free energy of the ion-electron system (eV)
  ---------------------------------------------------
  alpha Z        PSCENC =      2397.92104513
  Ewald energy   TEWEN  =    136380.32841298
  -Hartree energ DENC   =   -216237.40979778
  -exchange      EXHF   =         0.00000000
  -V(xc)+E(xc)   XCENC  =      3447.02064461
  PAW double counting   =     70402.76065631   -69652.40325500
  entropy T*S    EENTRO =        -0.04416559
  eigenvalues    EBANDS =      6960.15408481
  atomic energy  EATOM  =     87776.77885653
  Solvation  Ediel_sol  =         0.00000000
  ---------------------------------------------------
  free energy    TOTEN  =     21475.10648201 eV

  energy without entropy =    21475.15064760  energy(sigma->0) =    21475.12856480


--------------------------------------------------------------------------------------------------------




--------------------------------------- Iteration      1(   2)  ---------------------------------------


     EDDAV:  cpu time      3.2401: real time      3.2415
       DOS:  cpu time      0.0020: real time      0.0020
    --------------------------------------------
      LOOP:  cpu time      3.2420: real time      3.2434

 eigenvalue-minimisations  :  3168
 total energy-change (2. order) :-0.1528528E+05  (-0.1362123E+05)
 number of electron    1168.0000000 magnetization     105.6000000
 augmentation part     1168.0000000 magnetization     105.6000000

 Free energy of the ion-electron system (eV)
  ---------------------------------------------------
  alpha Z        PSCENC =      2397.92104513
  Ewald energy   TEWEN  =    136380.32841298
  -Hartree energ DENC   =   -216237.40979778
  -exchange      EXHF   =         0.00000000
  -V(xc)+E(xc)   XCENC  =      3447.02064461
  PAW double counting   =     70402.76065631   -69652.40325500
  entropy T*S    EENTRO =        -0.16620695
  eigenvalues    EBANDS =     -8325.00101661
  atomic energy  EATOM  =     87776.77885653
  Solvation  Ediel_sol  =         0.00000000
  ---------------------------------------------------
  free energy    TOTEN  =      6189.82933922 eV

  energy without entropy =     6189.99554618  energy(sigma->0) =     6189.91244270


--------------------------------------------------------------------------------------------------------




--------------------------------------- Iteration      1(   3)  ---------------------------------------


     EDDAV:  cpu time      3.7437: real time      3.7458
       DOS:  cpu time      0.0028: real time      0.0028
    --------------------------------------------
      LOOP:  cpu time      3.7464: real time      3.7486

 eigenvalue-minimisations  :  3792
 total energy-change (2. order) :-0.6142159E+04  (-0.5610729E+04)
 number of electron    1168.0000000 magnetization     105.6000000
 augmentation part     1168.0000000 magnetization     105.6000000

 Free energy of the ion-electron system (eV)
  ---------------------------------------------------
  alpha Z        PSCENC =      2397.92104513
  Ewald energy   TEWEN  =    136380.32841298
  -Hartree energ DENC   =   -216237.40979778
  -exchange      EXHF   =         0.00000000
  -V(xc)+E(xc)   XCENC  =      3447.02064461
  PAW double counting   =     70402.76065631   -69652.40325500
  entropy T*S    EENTRO =        -0.14561617
  eigenvalues    EBANDS =    -14467.18043321
  atomic energy  EATOM  =     87776.77885653
  Solvation  Ediel_sol  =         0.00000000
  ---------------------------------------------------
  free energy    TOTEN  =        47.67051341 eV

  energy without entropy =       47.81612957  energy(sigma->0) =       47.74332149


--------------------------------------------------------------------------------------------------------




--------------------------------------- Iteration      1(   4)  ---------------------------------------


     EDDAV:  cpu time      4.0731: real time      4.0754
       DOS:  cpu time      0.0025: real time      0.0025
    --------------------------------------------
      LOOP:  cpu time      4.0755: real time      4.0779

 eigenvalue-minimisations  :  4224
 total energy-change (2. order) :-0.1427739E+04  (-0.1391055E+04)
 number of electron    1168.0000000 magnetization     105.6000000
 augmentation part     1168.0000000 magnetization     105.6000000

 Free energy of the ion-electron system (eV)
  ---------------------------------------------------
  alpha Z        PSCENC =      2397.92104513
  Ewald energy   TEWEN  =    136380.32841298
  -Hartree energ DENC   =   -216237.40979778
  -exchange      EXHF   =         0.00000000
  -V(xc)+E(xc)   XCENC  =      3447.02064461
  PAW double counting   =     70402.76065631   -69652.40325500
  entropy T*S    EENTRO =        -0.04686072
  eigenvalues    EBANDS =    -15895.01773469
  atomic energy  EATOM  =     87776.77885653
  Solvation  Ediel_sol  =         0.00000000
  ---------------------------------------------------
  free energy    TOTEN  =     -1380.06803263 eV

  energy without entropy =    -1380.02117190  energy(sigma->0) =    -1380.04460227


--------------------------------------------------------------------------------------------------------




--------------------------------------- Iteration      1(   5)  ---------------------------------------


     EDDAV:  cpu time      4.6728: real time      4.6759
       DOS:  cpu time      0.0022: real time      0.0022
    CHARGE:  cpu time      0.2749: real time      0.2758
    MIXING:  cpu time      0.0159: real time      0.0165
    --------------------------------------------
      LOOP:  cpu time      4.9658: real time      4.9703

 eigenvalue-minimisations  :  4992
 total energy-change (2. order) :-0.1060500E+03  (-0.9894139E+02)
 number of electron    1168.0000020 magnetization      95.7284473
 augmentation part       38.1314527 magnetization      73.3154328

 Broyden mixing:
  rms(total) = 0.20608E+02    rms(broyden)= 0.20606E+02
  rms(prec ) = 0.21301E+02
  weight for this iteration     100.00

 Free energy of the ion-electron system (eV)
  ---------------------------------------------------
  alpha Z        PSCENC =      2397.92104513
  Ewald energy   TEWEN  =    136380.32841298
  -Hartree energ DENC   =   -216237.40979778
  -exchange      EXHF   =         0.00000000
  -V(xc)+E(xc)   XCENC  =      3447.02064461
  PAW double counting   =     70402.76065631   -69652.40325500
  entropy T*S    EENTRO =        -0.15841058
  eigenvalues    EBANDS =    -16000.95619543
  atomic energy  EATOM  =     87776.77885653
  Solvation  Ediel_sol  =         0.00000000
  ---------------------------------------------------
  free energy    TOTEN  =     -1486.11804322 eV

  energy without entropy =    -1485.95963264  energy(sigma->0) =    -1486.03883793


--------------------------------------------------------------------------------------------------------




--------------------------------------- Iteration      1(   6)  ---------------------------------------


    POTLOK:  cpu time      0.0582: real time      0.0582
    SETDIJ:  cpu time      0.9807: real time      0.9811
    EDDIAG:  cpu time      0.7010: real time      0.7012
  RMM-DIIS:  cpu time      2.4470: real time      2.4482
    ORTHCH:  cpu time      0.1344: real time      0.1349
       DOS:  cpu time      0.0009: real time      0.0009
    CHARGE:  cpu time      0.2694: real time      0.2694
    MIXING:  cpu time      0.0082: real time      0.0083
    --------------------------------------------
      LOOP:  cpu time      4.5997: real time      4.6022

 eigenvalue-minimisations  :  4191
 total energy-change (2. order) : 0.1959778E+03  (-0.2497525E+03)
 number of electron    1168.0000015 magnetization      94.4540128
 augmentation part       93.7107066 magnetization      66.2732337

 Broyden mixing:
  rms(total) = 0.33715E+02    rms(broyden)= 0.33713E+02
  rms(prec ) = 0.36447E+02
  weight for this iteration     100.00

 eigenvalues of (default mixing * dielectric matrix)
  average eigenvalue GAMMA=   0.1807
  0.1807

 Free energy of the ion-electron system (eV)
  ---------------------------------------------------
  alpha Z        PSCENC =      2397.92104513
  Ewald energy   TEWEN  =    136380.32841298
  -Hartree energ DENC   =   -217917.49553587
  -exchange      EXHF   =         0.00000000
  -V(xc)+E(xc)   XCENC  =      3603.96937147
  PAW double counting   =     77846.47802326   -77106.93773691
  entropy T*S    EENTRO =        -0.36339892
  eigenvalues    EBANDS =    -14270.81932339
  atomic energy  EATOM  =     87776.77885653
  Solvation  Ediel_sol  =         0.00000000
  ---------------------------------------------------
  free energy    TOTEN  =     -1290.14028572 eV

  energy without entropy =    -1289.77688680  energy(sigma->0) =    -1289.95858626


--------------------------------------------------------------------------------------------------------




--------------------------------------- Iteration      1(   7)  ---------------------------------------


    POTLOK:  cpu time      0.0594: real time      0.0594
    SETDIJ:  cpu time      0.9776: real time      0.9781
    EDDIAG:  cpu time      0.7059: real time      0.7061
  RMM-DIIS:  cpu time      2.5036: real time      2.5046
    ORTHCH:  cpu time      0.1362: real time      0.1362
       DOS:  cpu time      0.0007: real time      0.0007
    CHARGE:  cpu time      0.2659: real time      0.2659
    MIXING:  cpu time      0.0018: real time      0.0018
    --------------------------------------------
      LOOP:  cpu time      4.6511: real time      4.6528

 eigenvalue-minimisations  :  4223
 total energy-change (2. order) : 0.9190113E+02  (-0.3272798E+02)
 number of electron    1168.0000019 magnetization      86.8651739
 augmentation part       37.4503043 magnetization      69.2282209

 Broyden mixing:
  rms(total) = 0.11831E+02    rms(broyden)= 0.11829E+02
  rms(prec ) = 0.13233E+02
  weight for this iteration     100.00

 eigenvalues of (default mixing * dielectric matrix)
  average eigenvalue GAMMA=   0.4468
  0.6753  0.2182

 Free energy of the ion-electron system (eV)
  ---------------------------------------------------
  alpha Z        PSCENC =      2397.92104513
  Ewald energy   TEWEN  =    136380.32841298
  -Hartree energ DENC   =   -218255.14721271
  -exchange      EXHF   =         0.00000000
  -V(xc)+E(xc)   XCENC  =      3594.05689392
  PAW double counting   =     79236.49015608   -78528.89912851
  entropy T*S    EENTRO =        -0.17091755
  eigenvalues    EBANDS =    -13799.59726416
  atomic energy  EATOM  =     87776.77885653
  Solvation  Ediel_sol  =         0.00000000
  ---------------------------------------------------
  free energy    TOTEN  =     -1198.23915828 eV

  energy without entropy =    -1198.06824073  energy(sigma->0) =    -1198.15369950


--------------------------------------------------------------------------------------------------------




--------------------------------------- Iteration      1(   8)  ---------------------------------------


    POTLOK:  cpu time      0.0560: real time      0.0574
    SETDIJ:  cpu time      0.9782: real time      0.9782
    EDDIAG:  cpu time      0.6964: real time      0.6970
  RMM-DIIS:  cpu time      2.6396: real time      2.6410
    ORTHCH:  cpu time      0.1351: real time      0.1351
       DOS:  cpu time      0.0009: real time      0.0009
    CHARGE:  cpu time      0.2680: real time      0.2681
    MIXING:  cpu time      0.0018: real time      0.0018
    --------------------------------------------
      LOOP:  cpu time      4.7760: real time      4.7796

 eigenvalue-minimisations  :  4425
 total energy-change (2. order) :-0.4709538E+03  (-0.8590258E+02)
 number of electron    1168.0000013 magnetization      83.3064513
 augmentation part      115.7211310 magnetization      65.6439249

 Broyden mixing:
  rms(total) = 0.28940E+02    rms(broyden)= 0.28938E+02
  rms(prec ) = 0.37686E+02
  weight for this iteration     100.00

 eigenvalues of (default mixing * dielectric matrix)
  average eigenvalue GAMMA=   0.4130
  0.5613  0.5405  0.1373

 Free energy of the ion-electron system (eV)
  ---------------------------------------------------
  alpha Z        PSCENC =      2397.92104513
  Ewald energy   TEWEN  =    136380.32841298
  -Hartree energ DENC   =   -217753.17911858
  -exchange      EXHF   =         0.00000000
  -V(xc)+E(xc)   XCENC  =      3612.37594729
  PAW double counting   =     82410.81521814   -81686.96616282
  entropy T*S    EENTRO =        -0.14607069
  eigenvalues    EBANDS =    -14807.12107922
  atomic energy  EATOM  =     87776.77885653
  Solvation  Ediel_sol  =         0.00000000
  ---------------------------------------------------
  free energy    TOTEN  =     -1669.19295124 eV

  energy without entropy =    -1669.04688055  energy(sigma->0) =    -1669.11991590


--------------------------------------------------------------------------------------------------------




--------------------------------------- Iteration      1(   9)  ---------------------------------------


    POTLOK:  cpu time      0.0573: real time      0.0573
    SETDIJ:  cpu time      0.9764: real time      0.9770
    EDDIAG:  cpu time      0.7089: real time      0.7091
  RMM-DIIS:  cpu time      2.4213: real time      2.4228
    ORTHCH:  cpu time      0.1364: real time      0.1367
       DOS:  cpu time      0.0007: real time      0.0007
    CHARGE:  cpu time      0.2704: real time      0.2704
    MIXING:  cpu time      0.0020: real time      0.0020
    --------------------------------------------
      LOOP:  cpu time      4.5736: real time      4.5761

 eigenvalue-minimisations  :  3982
 total energy-change (2. order) : 0.4589564E+03  (-0.2455874E+02)
 number of electron    1168.0000013 magnetization      76.8358384
 augmentation part       34.1865375 magnetization      67.9324881

 Broyden mixing:
  rms(total) = 0.92700E+01    rms(broyden)= 0.92655E+01
  rms(prec ) = 0.10177E+02
  weight for this iteration     100.00

 eigenvalues of (default mixing * dielectric matrix)
  average eigenvalue GAMMA=   0.5307
  1.2129  0.3864  0.3864  0.1369

 Free energy of the ion-electron system (eV)
  ---------------------------------------------------
  alpha Z        PSCENC =      2397.92104513
  Ewald energy   TEWEN  =    136380.32841298
  -Hartree energ DENC   =   -218374.63246099
  -exchange      EXHF   =         0.00000000
  -V(xc)+E(xc)   XCENC  =      3611.20535120
  PAW double counting   =     83417.96187886   -82732.37842919
  entropy T*S    EENTRO =        -0.10974234
  eigenvalues    EBANDS =    -13687.31147722
  atomic energy  EATOM  =     87776.77885653
  Solvation  Ediel_sol  =         0.00000000
  ---------------------------------------------------
  free energy    TOTEN  =     -1210.23656504 eV

  energy without entropy =    -1210.12682269  energy(sigma->0) =    -1210.18169387


--------------------------------------------------------------------------------------------------------




--------------------------------------- Iteration      1(  10)  ---------------------------------------


    POTLOK:  cpu time      0.0602: real time      0.0602
    SETDIJ:  cpu time      0.9780: real time      0.9782
    EDDIAG:  cpu time      0.7012: real time      0.7016
  RMM-DIIS:  cpu time      2.4151: real time      2.4163
    ORTHCH:  cpu time      0.1320: real time      0.1320
       DOS:  cpu time      0.0008: real time      0.0008
    CHARGE:  cpu time      0.2644: real time      0.2644
    MIXING:  cpu time      0.0020: real time      0.0021
    --------------------------------------------
      LOOP:  cpu time      4.5538: real time      4.5556

 eigenvalue-minimisations  :  4091
 total energy-change (2. order) :-0.2782763E+02  (-0.1988969E+02)
 number of electron    1168.0000017 magnetization      72.4620595
 augmentation part       29.8762575 magnetization      68.9246817

 Broyden mixing:
  rms(total) = 0.97375E+01    rms(broyden)= 0.97332E+01
  rms(prec ) = 0.10916E+02
  weight for this iteration     100.00

 eigenvalues of (default mixing * dielectric matrix)
  average eigenvalue GAMMA=   0.5216
  1.4025  0.4136  0.4136  0.1363  0.2422

 Free energy of the ion-electron system (eV)
  ---------------------------------------------------
  alpha Z        PSCENC =      2397.92104513
  Ewald energy   TEWEN  =    136380.32841298
  -Hartree energ DENC   =   -218701.87138763
  -exchange      EXHF   =         0.00000000
  -V(xc)+E(xc)   XCENC  =      3610.70709953
  PAW double counting   =     85289.59341648   -84588.99565562
  entropy T*S    EENTRO =        -0.03720673
  eigenvalues    EBANDS =    -13402.48877432
  atomic energy  EATOM  =     87776.77885653
  Solvation  Ediel_sol  =         0.00000000
  ---------------------------------------------------
  free energy    TOTEN  =     -1238.06419364 eV

  energy without entropy =    -1238.02698691  energy(sigma->0) =    -1238.04559028


--------------------------------------------------------------------------------------------------------




--------------------------------------- Iteration      1(  11)  ---------------------------------------


    POTLOK:  cpu time      0.0621: real time      0.0621
    SETDIJ:  cpu time      0.9811: real time      0.9821
    EDDIAG:  cpu time      0.7050: real time      0.7053
  RMM-DIIS:  cpu time      2.5583: real time      2.5605
    ORTHCH:  cpu time      0.1325: real time      0.1325
       DOS:  cpu time      0.0007: real time      0.0007
    CHARGE:  cpu time      0.2671: real time      0.2672
    MIXING:  cpu time      0.0029: real time      0.0029
    --------------------------------------------
      LOOP:  cpu time      4.7098: real time      4.7132

 eigenvalue-minimisations  :  4202
 total energy-change (2. order) : 0.8778738E+02  (-0.1274632E+02)
 number of electron    1168.0000018 magnetization      69.8778736
 augmentation part       28.8319890 magnetization      62.1356946

 Broyden mixing:
  rms(total) = 0.79360E+01    rms(broyden)= 0.79331E+01
  rms(prec ) = 0.89998E+01
  weight for this iteration     100.00

 eigenvalues of (default mixing * dielectric matrix)
  average eigenvalue GAMMA=   0.5006
  1.4500  0.4515  0.4515  0.1366  0.2570  0.2570

 Free energy of the ion-electron system (eV)
  ---------------------------------------------------
  alpha Z        PSCENC =      2397.92104513
  Ewald energy   TEWEN  =    136380.32841298
  -Hartree energ DENC   =   -218881.13071701
  -exchange      EXHF   =         0.00000000
  -V(xc)+E(xc)   XCENC  =      3617.31756705
  PAW double counting   =     86222.41580540   -85513.41823246
  entropy T*S    EENTRO =        -0.05687570
  eigenvalues    EBANDS =    -13150.43267151
  atomic energy  EATOM  =     87776.77885653
  Solvation  Ediel_sol  =         0.00000000
  ---------------------------------------------------
  free energy    TOTEN  =     -1150.27680959 eV

  energy without entropy =    -1150.21993389  energy(sigma->0) =    -1150.24837174


--------------------------------------------------------------------------------------------------------




--------------------------------------- Iteration      1(  12)  ---------------------------------------


    POTLOK:  cpu time      0.0570: real time      0.0570
    SETDIJ:  cpu time      0.9875: real time      0.9877
    EDDIAG:  cpu time      0.7039: real time      0.7044
  RMM-DIIS:  cpu time      2.5387: real time      2.5402
    ORTHCH:  cpu time      0.1333: real time      0.1333
       DOS:  cpu time      0.0009: real time      0.0009
    CHARGE:  cpu time      0.2711: real time      0.2719
    MIXING:  cpu time      0.0023: real time      0.0023
    --------------------------------------------
      LOOP:  cpu time      4.6947: real time      4.6979

 eigenvalue-minimisations  :  4283
 total energy-change (2. order) : 0.2350137E+02  (-0.7381298E+01)
 number of electron    1168.0000015 magnetization      65.9947935
 augmentation part       27.8128592 magnetization      58.9254934

 Broyden mixing:
  rms(total) = 0.67141E+01    rms(broyden)= 0.67090E+01
  rms(prec ) = 0.73168E+01
  weight for this iteration     100.00

 eigenvalues of (default mixing * dielectric matrix)
  average eigenvalue GAMMA=   0.4937
  1.4841  0.5497  0.5497  0.2640  0.2640  0.1358  0.2087

 Free energy of the ion-electron system (eV)
  ---------------------------------------------------
  alpha Z        PSCENC =      2397.92104513
  Ewald energy   TEWEN  =    136380.32841298
  -Hartree energ DENC   =   -218953.12507922
  -exchange      EXHF   =         0.00000000
  -V(xc)+E(xc)   XCENC  =      3617.67296565
  PAW double counting   =     86564.47292853   -85852.76384605
  entropy T*S    EENTRO =        -0.05885211
  eigenvalues    EBANDS =    -13058.00187001
  atomic energy  EATOM  =     87776.77885653
  Solvation  Ediel_sol  =         0.00000000
  ---------------------------------------------------
  free energy    TOTEN  =     -1126.77543857 eV

  energy without entropy =    -1126.71658646  energy(sigma->0) =    -1126.74601251


--------------------------------------------------------------------------------------------------------




--------------------------------------- Iteration      1(  13)  ---------------------------------------


    POTLOK:  cpu time      0.0584: real time      0.0584
    SETDIJ:  cpu time      0.9868: real time      0.9870
    EDDIAG:  cpu time      0.6842: real time      0.6845
  RMM-DIIS:  cpu time      2.5015: real time      2.5030
    ORTHCH:  cpu time      0.1330: real time      0.1330
       DOS:  cpu time      0.0007: real time      0.0007
    CHARGE:  cpu time      0.2701: real time      0.2702
    MIXING:  cpu time      0.0024: real time      0.0024
    --------------------------------------------
      LOOP:  cpu time      4.6370: real time      4.6391

 eigenvalue-minimisations  :  4225
 total energy-change (2. order) :-0.3301875E+00  (-0.5129265E+01)
 number of electron    1168.0000016 magnetization      63.8133716
 augmentation part       28.5314775 magnetization      53.6036758

 Broyden mixing:
  rms(total) = 0.68261E+01    rms(broyden)= 0.68222E+01
  rms(prec ) = 0.76611E+01
  weight for this iteration     100.00

 eigenvalues of (default mixing * dielectric matrix)
  average eigenvalue GAMMA=   0.4910
  1.4003  0.6628  0.6628  0.3608  0.3608  0.1363  0.1719  0.1719

 Free energy of the ion-electron system (eV)
  ---------------------------------------------------
  alpha Z        PSCENC =      2397.92104513
  Ewald energy   TEWEN  =    136380.32841298
  -Hartree energ DENC   =   -219023.27595835
  -exchange      EXHF   =         0.00000000
  -V(xc)+E(xc)   XCENC  =      3615.61346733
  PAW double counting   =     86819.36651918   -86097.56421753
  entropy T*S    EENTRO =        -0.05479425
  eigenvalues    EBANDS =    -12996.21895707
  atomic energy  EATOM  =     87776.77885653
  Solvation  Ediel_sol  =         0.00000000
  ---------------------------------------------------
  free energy    TOTEN  =     -1127.10562604 eV

  energy without entropy =    -1127.05083179  energy(sigma->0) =    -1127.07822892


--------------------------------------------------------------------------------------------------------




--------------------------------------- Iteration      1(  14)  ---------------------------------------


    POTLOK:  cpu time      0.0567: real time      0.0567
    SETDIJ:  cpu time      0.9827: real time      0.9837
    EDDIAG:  cpu time      0.7013: real time      0.7016
  RMM-DIIS:  cpu time      2.5206: real time      2.5220
    ORTHCH:  cpu time      0.1333: real time      0.1333
       DOS:  cpu time      0.0008: real time      0.0009
    CHARGE:  cpu time      0.2686: real time      0.2689
    MIXING:  cpu time      0.0023: real time      0.0023
    --------------------------------------------
      LOOP:  cpu time      4.6664: real time      4.6694

 eigenvalue-minimisations  :  4260
 total energy-change (2. order) : 0.2039655E-02  (-0.3492047E+01)
 number of electron    1168.0000016 magnetization      62.9531339
 augmentation part       28.0922489 magnetization      47.1646079

 Broyden mixing:
  rms(total) = 0.55215E+01    rms(broyden)= 0.55178E+01
  rms(prec ) = 0.59634E+01
  weight for this iteration     100.00

 eigenvalues of (default mixing * dielectric matrix)
  average eigenvalue GAMMA=   0.4575
  1.3501  0.7140  0.7140  0.3507  0.3507  0.1837  0.1837  0.1353  0.1353

 Free energy of the ion-electron system (eV)
  ---------------------------------------------------
  alpha Z        PSCENC =      2397.92104513
  Ewald energy   TEWEN  =    136380.32841298
  -Hartree energ DENC   =   -219041.05243502
  -exchange      EXHF   =         0.00000000
  -V(xc)+E(xc)   XCENC  =      3608.53587152
  PAW double counting   =     86706.23640174   -85976.74533310
  entropy T*S    EENTRO =        -0.11478940
  eigenvalues    EBANDS =    -12978.99161677
  atomic energy  EATOM  =     87776.77885653
  Solvation  Ediel_sol  =         0.00000000
  ---------------------------------------------------
  free energy    TOTEN  =     -1127.10358639 eV

  energy without entropy =    -1126.98879699  energy(sigma->0) =    -1127.04619169


--------------------------------------------------------------------------------------------------------




--------------------------------------- Iteration      1(  15)  ---------------------------------------


    POTLOK:  cpu time      0.0584: real time      0.0584
    SETDIJ:  cpu time      0.9797: real time      0.9802
    EDDIAG:  cpu time      0.6890: real time      0.6896
  RMM-DIIS:  cpu time      2.5667: real time      2.5678
    ORTHCH:  cpu time      0.1329: real time      0.1334
       DOS:  cpu time      0.0007: real time      0.0007
    CHARGE:  cpu time      0.2699: real time      0.2699
    MIXING:  cpu time      0.0024: real time      0.0024
    --------------------------------------------
      LOOP:  cpu time      4.6996: real time      4.7025

 eigenvalue-minimisations  :  4302
 total energy-change (2. order) :-0.8090726E+01  (-0.1344092E+01)
 number of electron    1168.0000016 magnetization      62.2196505
 augmentation part       27.5731824 magnetization      45.4872874

 Broyden mixing:
  rms(total) = 0.57312E+01    rms(broyden)= 0.57284E+01
  rms(prec ) = 0.62399E+01
  weight for this iteration     100.00

 eigenvalues of (default mixing * dielectric matrix)
  average eigenvalue GAMMA=   0.4316
  1.3213  0.7542  0.7542  0.3433  0.3433  0.2088  0.2088  0.1362  0.1227  0.1227

 Free energy of the ion-electron system (eV)
  ---------------------------------------------------
  alpha Z        PSCENC =      2397.92104513
  Ewald energy   TEWEN  =    136380.32841298
  -Hartree energ DENC   =   -219041.78783587
  -exchange      EXHF   =         0.00000000
  -V(xc)+E(xc)   XCENC  =      3604.58055549
  PAW double counting   =     86624.06528632   -85890.76990866
  entropy T*S    EENTRO =        -0.06032315
  eigenvalues    EBANDS =    -12986.25040165
  atomic energy  EATOM  =     87776.77885653
  Solvation  Ediel_sol  =         0.00000000
  ---------------------------------------------------
  free energy    TOTEN  =     -1135.19431288 eV

  energy without entropy =    -1135.13398973  energy(sigma->0) =    -1135.16415130


--------------------------------------------------------------------------------------------------------




--------------------------------------- Iteration      1(  16)  ---------------------------------------


    POTLOK:  cpu time      0.0584: real time      0.0584
    SETDIJ:  cpu time      0.9759: real time      0.9762
    EDDIAG:  cpu time      0.7044: real time      0.7047
  RMM-DIIS:  cpu time      2.5921: real time      2.5929
    ORTHCH:  cpu time      0.1330: real time      0.1330
       DOS:  cpu time      0.0009: real time      0.0009
    CHARGE:  cpu time      0.2735: real time      0.2739
    MIXING:  cpu time      0.0027: real time      0.0027
    --------------------------------------------
      LOOP:  cpu time      4.7409: real time      4.7428

 eigenvalue-minimisations  :  4366
 total energy-change (2. order) :-0.8818252E+00  (-0.1020033E+01)
 number of electron    1168.0000016 magnetization      61.9742778
 augmentation part       26.9128768 magnetization      40.8885061

 Broyden mixing:
  rms(total) = 0.48359E+01    rms(broyden)= 0.48338E+01
  rms(prec ) = 0.51340E+01
  weight for this iteration     100.00

 eigenvalues of (default mixing * dielectric matrix)
  average eigenvalue GAMMA=   0.4015
  1.3193  0.7596  0.7596  0.3332  0.3332  0.2256  0.2256  0.1363  0.1316  0.1316
  0.0609

 Free energy of the ion-electron system (eV)
  ---------------------------------------------------
  alpha Z        PSCENC =      2397.92104513
  Ewald energy   TEWEN  =    136380.32841298
  -Hartree energ DENC   =   -219044.88490535
  -exchange      EXHF   =         0.00000000
  -V(xc)+E(xc)   XCENC  =      3600.92874373
  PAW double counting   =     86553.01669009   -85816.37620008
  entropy T*S    EENTRO =        -0.08613909
  eigenvalues    EBANDS =    -12983.70264205
  atomic energy  EATOM  =     87776.77885653
  Solvation  Ediel_sol  =         0.00000000
  ---------------------------------------------------
  free energy    TOTEN  =     -1136.07613810 eV

  energy without entropy =    -1135.98999902  energy(sigma->0) =    -1136.03306856


--------------------------------------------------------------------------------------------------------




--------------------------------------- Iteration      1(  17)  ---------------------------------------


    POTLOK:  cpu time      0.0580: real time      0.0580
    SETDIJ:  cpu time      0.9661: real time      0.9663
    EDDIAG:  cpu time      0.7053: real time      0.7057
  RMM-DIIS:  cpu time      2.7158: real time      2.7184
    ORTHCH:  cpu time      0.1331: real time      0.1331
       DOS:  cpu time      0.0007: real time      0.0007
    CHARGE:  cpu time      0.2752: real time      0.2752
    MIXING:  cpu time      0.0032: real time      0.0032
    --------------------------------------------
      LOOP:  cpu time      4.8574: real time      4.8605

 eigenvalue-minimisations  :  4570
 total energy-change (2. order) :-0.2214946E+01  (-0.4901732E+00)
 number of electron    1168.0000015 magnetization      61.9120339
 augmentation part       26.3726664 magnetization      37.6992274

 Broyden mixing:
  rms(total) = 0.43155E+01    rms(broyden)= 0.43143E+01
  rms(prec ) = 0.44513E+01
  weight for this iteration     100.00

 eigenvalues of (default mixing * dielectric matrix)
  average eigenvalue GAMMA=   0.3855
  1.3245  0.7618  0.7618  0.3197  0.3197  0.2072  0.2072  0.1886  0.1886  0.1364
  0.1125  0.0974

 Free energy of the ion-electron system (eV)
  ---------------------------------------------------
  alpha Z        PSCENC =      2397.92104513
  Ewald energy   TEWEN  =    136380.32841298
  -Hartree energ DENC   =   -219036.84993173
  -exchange      EXHF   =         0.00000000
  -V(xc)+E(xc)   XCENC  =      3598.77338827
  PAW double counting   =     86528.61815890   -85790.35967318
  entropy T*S    EENTRO =        -0.08608253
  eigenvalues    EBANDS =    -12993.41525811
  atomic energy  EATOM  =     87776.77885653
  Solvation  Ediel_sol  =         0.00000000
  ---------------------------------------------------
  free energy    TOTEN  =     -1138.29108374 eV

  energy without entropy =    -1138.20500121  energy(sigma->0) =    -1138.24804248


--------------------------------------------------------------------------------------------------------




--------------------------------------- Iteration      1(  18)  ---------------------------------------


    POTLOK:  cpu time      0.0573: real time      0.0573
    SETDIJ:  cpu time      0.9652: real time      0.9658
    EDDIAG:  cpu time      0.7042: real time      0.7045
  RMM-DIIS:  cpu time      2.7742: real time      2.7759
    ORTHCH:  cpu time      0.1327: real time      0.1327
       DOS:  cpu time      0.0011: real time      0.0011
    CHARGE:  cpu time      0.2715: real time      0.2715
    MIXING:  cpu time      0.0030: real time      0.0030
    --------------------------------------------
      LOOP:  cpu time      4.9092: real time      4.9118

 eigenvalue-minimisations  :  4688
 total energy-change (2. order) :-0.3288861E+01  (-0.2906494E+00)
 number of electron    1168.0000015 magnetization      61.9682780
 augmentation part       26.0394281 magnetization      35.6939963

 Broyden mixing:
  rms(total) = 0.42195E+01    rms(broyden)= 0.42189E+01
  rms(prec ) = 0.43283E+01
  weight for this iteration     100.00

 eigenvalues of (default mixing * dielectric matrix)
  average eigenvalue GAMMA=   0.3676
  1.3281  0.7565  0.7565  0.3212  0.3212  0.2396  0.2396  0.1918  0.1918  0.1363
  0.1156  0.1156  0.0649

 Free energy of the ion-electron system (eV)
  ---------------------------------------------------
  alpha Z        PSCENC =      2397.92104513
  Ewald energy   TEWEN  =    136380.32841298
  -Hartree energ DENC   =   -219029.98689486
  -exchange      EXHF   =         0.00000000
  -V(xc)+E(xc)   XCENC  =      3597.48864718
  PAW double counting   =     86522.97138369   -85783.45561018
  entropy T*S    EENTRO =        -0.06187045
  eigenvalues    EBANDS =    -13003.56391443
  atomic energy  EATOM  =     87776.77885653
  Solvation  Ediel_sol  =         0.00000000
  ---------------------------------------------------
  free energy    TOTEN  =     -1141.57994440 eV

  energy without entropy =    -1141.51807395  energy(sigma->0) =    -1141.54900917


--------------------------------------------------------------------------------------------------------




--------------------------------------- Iteration      1(  19)  ---------------------------------------


    POTLOK:  cpu time      0.0566: real time      0.0566
    SETDIJ:  cpu time      0.9648: real time      0.9653
    EDDIAG:  cpu time      0.7036: real time      0.7039
  RMM-DIIS:  cpu time      2.9876: real time      2.9896
    ORTHCH:  cpu time      0.1325: real time      0.1327
       DOS:  cpu time      0.0009: real time      0.0009
    CHARGE:  cpu time      0.2736: real time      0.2736
    MIXING:  cpu time      0.0028: real time      0.0028
    --------------------------------------------
      LOOP:  cpu time      5.1225: real time      5.1254

 eigenvalue-minimisations  :  4993
 total energy-change (2. order) :-0.1861692E+01  (-0.1716449E+00)
 number of electron    1168.0000015 magnetization      62.0877799
 augmentation part       25.8100491 magnetization      35.5492427

 Broyden mixing:
  rms(total) = 0.41908E+01    rms(broyden)= 0.41906E+01
  rms(prec ) = 0.43039E+01
  weight for this iteration     100.00

 eigenvalues of (default mixing * dielectric matrix)
  average eigenvalue GAMMA=   0.3648
  1.3251  0.7540  0.7540  0.2999  0.2999  0.3295  0.3295  0.2149  0.2149  0.1363
  0.1373  0.1373  0.0868  0.0868

 Free energy of the ion-electron system (eV)
  ---------------------------------------------------
  alpha Z        PSCENC =      2397.92104513
  Ewald energy   TEWEN  =    136380.32841298
  -Hartree energ DENC   =   -219029.62407194
  -exchange      EXHF   =         0.00000000
  -V(xc)+E(xc)   XCENC  =      3596.86330539
  PAW double counting   =     86529.11827421   -85789.04324214
  entropy T*S    EENTRO =        -0.04321347
  eigenvalues    EBANDS =    -13005.74100301
  atomic energy  EATOM  =     87776.77885653
  Solvation  Ediel_sol  =         0.00000000
  ---------------------------------------------------
  free energy    TOTEN  =     -1143.44163632 eV

  energy without entropy =    -1143.39842285  energy(sigma->0) =    -1143.42002958


--------------------------------------------------------------------------------------------------------




--------------------------------------- Iteration      1(  20)  ---------------------------------------


    POTLOK:  cpu time      0.0579: real time      0.0579
    SETDIJ:  cpu time      0.9645: real time      0.9653
    EDDIAG:  cpu time      0.7025: real time      0.7027
  RMM-DIIS:  cpu time      2.9714: real time      2.9729
    ORTHCH:  cpu time      0.1332: real time      0.1334
       DOS:  cpu time      0.0008: real time      0.0008
    CHARGE:  cpu time      0.2704: real time      0.2709
    MIXING:  cpu time      0.0034: real time      0.0034
    --------------------------------------------
      LOOP:  cpu time      5.1042: real time      5.1073

 eigenvalue-minimisations  :  4964
 total energy-change (2. order) :-0.1356977E+01  (-0.1517215E+00)
 number of electron    1168.0000015 magnetization      62.1976027
 augmentation part       25.6082324 magnetization      35.7320719

 Broyden mixing:
  rms(total) = 0.40921E+01    rms(broyden)= 0.40920E+01
  rms(prec ) = 0.42038E+01
  weight for this iteration     100.00

 eigenvalues of (default mixing * dielectric matrix)
  average eigenvalue GAMMA=   0.3618
  1.3241  0.7515  0.7515  0.3682  0.3682  0.3255  0.3255  0.2260  0.2260  0.1587
  0.1587  0.1364  0.1153  0.1153  0.0768

 Free energy of the ion-electron system (eV)
  ---------------------------------------------------
  alpha Z        PSCENC =      2397.92104513
  Ewald energy   TEWEN  =    136380.32841298
  -Hartree energ DENC   =   -219033.85914762
  -exchange      EXHF   =         0.00000000
  -V(xc)+E(xc)   XCENC  =      3596.51188739
  PAW double counting   =     86532.95246232   -85792.03969669
  entropy T*S    EENTRO =        -0.03174469
  eigenvalues    EBANDS =    -13003.36068916
  atomic energy  EATOM  =     87776.77885653
  Solvation  Ediel_sol  =         0.00000000
  ---------------------------------------------------
  free energy    TOTEN  =     -1144.79861380 eV

  energy without entropy =    -1144.76686911  energy(sigma->0) =    -1144.78274145


--------------------------------------------------------------------------------------------------------




--------------------------------------- Iteration      1(  21)  ---------------------------------------


    POTLOK:  cpu time      0.0588: real time      0.0588
    SETDIJ:  cpu time      0.9626: real time      0.9627
    EDDIAG:  cpu time      0.7072: real time      0.7073
  RMM-DIIS:  cpu time      2.9287: real time      2.9299
    ORTHCH:  cpu time      0.1328: real time      0.1328
       DOS:  cpu time      0.0010: real time      0.0010
    CHARGE:  cpu time      0.2749: real time      0.2759
    MIXING:  cpu time      0.0031: real time      0.0031
    --------------------------------------------
      LOOP:  cpu time      5.0691: real time      5.0715

 eigenvalue-minimisations  :  4918
 total energy-change (2. order) :-0.6274410E+00  (-0.1288047E+00)
 number of electron    1168.0000015 magnetization      62.2278168
 augmentation part       25.5340860 magnetization      35.8108514

 Broyden mixing:
  rms(total) = 0.39637E+01    rms(broyden)= 0.39636E+01
  rms(prec ) = 0.40811E+01
  weight for this iteration     100.00

 eigenvalues of (default mixing * dielectric matrix)
  average eigenvalue GAMMA=   0.4154
  1.2926  0.7184  0.7184  0.7662  0.7662  0.3661  0.3661  0.3065  0.3065  0.2036
  0.2036  0.1363  0.1559  0.1559  0.1043  0.0795

 Free energy of the ion-electron system (eV)
  ---------------------------------------------------
  alpha Z        PSCENC =      2397.92104513
  Ewald energy   TEWEN  =    136380.32841298
  -Hartree energ DENC   =   -219029.73428898
  -exchange      EXHF   =         0.00000000
  -V(xc)+E(xc)   XCENC  =      3596.68976171
  PAW double counting   =     86539.07269612   -85796.26129833
  entropy T*S    EENTRO =        -0.04990969
  eigenvalues    EBANDS =    -13010.17133024
  atomic energy  EATOM  =     87776.77885653
  Solvation  Ediel_sol  =         0.00000000
  ---------------------------------------------------
  free energy    TOTEN  =     -1145.42605476 eV

  energy without entropy =    -1145.37614507  energy(sigma->0) =    -1145.40109991


--------------------------------------------------------------------------------------------------------




--------------------------------------- Iteration      1(  22)  ---------------------------------------


    POTLOK:  cpu time      0.0586: real time      0.0586
    SETDIJ:  cpu time      0.9630: real time      0.9632
    EDDIAG:  cpu time      0.7055: real time      0.7057
  RMM-DIIS:  cpu time      2.9568: real time      2.9581
    ORTHCH:  cpu time      0.1339: real time      0.1339
       DOS:  cpu time      0.0006: real time      0.0006
    CHARGE:  cpu time      0.2661: real time      0.2671
    MIXING:  cpu time      0.0032: real time      0.0032
    --------------------------------------------
      LOOP:  cpu time      5.0877: real time      5.0904

 eigenvalue-minimisations  :  4922
 total energy-change (2. order) :-0.5611578E+00  (-0.5505631E+00)
 number of electron    1168.0000015 magnetization      61.7342287
 augmentation part       25.6113077 magnetization      35.3811044

 Broyden mixing:
  rms(total) = 0.36335E+01    rms(broyden)= 0.36328E+01
  rms(prec ) = 0.37456E+01
  weight for this iteration     100.00

 eigenvalues of (default mixing * dielectric matrix)
  average eigenvalue GAMMA=   0.4513
  1.2472  1.0268  1.0268  0.7737  0.7737  0.4562  0.4562  0.3205  0.3205  0.2285
  0.2285  0.1569  0.1569  0.1799  0.1363  0.1047  0.0794

 Free energy of the ion-electron system (eV)
  ---------------------------------------------------
  alpha Z        PSCENC =      2397.92104513
  Ewald energy   TEWEN  =    136380.32841298
  -Hartree energ DENC   =   -219017.23367732
  -exchange      EXHF   =         0.00000000
  -V(xc)+E(xc)   XCENC  =      3597.77819389
  PAW double counting   =     86527.86827744   -85777.49923288
  entropy T*S    EENTRO =        -0.01787422
  eigenvalues    EBANDS =    -13031.91121410
  atomic energy  EATOM  =     87776.77885653
  Solvation  Ediel_sol  =         0.00000000
  ---------------------------------------------------
  free energy    TOTEN  =     -1145.98721255 eV

  energy without entropy =    -1145.96933833  energy(sigma->0) =    -1145.97827544


--------------------------------------------------------------------------------------------------------




--------------------------------------- Iteration      1(  23)  ---------------------------------------


    POTLOK:  cpu time      0.0586: real time      0.0588
    SETDIJ:  cpu time      0.9635: real time      0.9637
    EDDIAG:  cpu time      0.7069: real time      0.7069
  RMM-DIIS:  cpu time      3.1268: real time      3.1290
    ORTHCH:  cpu time      0.1318: real time      0.1318
       DOS:  cpu time      0.0007: real time      0.0007
    CHARGE:  cpu time      0.2672: real time      0.2675
    MIXING:  cpu time      0.0034: real time      0.0035
    --------------------------------------------
      LOOP:  cpu time      5.2590: real time      5.2618

 eigenvalue-minimisations  :  5195
 total energy-change (2. order) : 0.4300159E+01  (-0.1474660E+01)
 number of electron    1168.0000015 magnetization      60.6924653
 augmentation part       26.1618788 magnetization      34.5061493

 Broyden mixing:
  rms(total) = 0.29398E+01    rms(broyden)= 0.29391E+01
  rms(prec ) = 0.29942E+01
  weight for this iteration     100.00

 eigenvalues of (default mixing * dielectric matrix)
  average eigenvalue GAMMA=   0.4689
  1.2546  1.2546  1.1914  0.6952  0.6952  0.5351  0.5351  0.3520  0.3520  0.2664
  0.2664  0.2181  0.1570  0.1570  0.1903  0.1363  0.1047  0.0794

 Free energy of the ion-electron system (eV)
  ---------------------------------------------------
  alpha Z        PSCENC =      2397.92104513
  Ewald energy   TEWEN  =    136380.32841298
  -Hartree energ DENC   =   -219020.13589118
  -exchange      EXHF   =         0.00000000
  -V(xc)+E(xc)   XCENC  =      3603.84490700
  PAW double counting   =     86562.21246905   -85795.41208911
  entropy T*S    EENTRO =        -0.02359148
  eigenvalues    EBANDS =    -13047.20117209
  atomic energy  EATOM  =     87776.77885653
  Solvation  Ediel_sol  =         0.00000000
  ---------------------------------------------------
  free energy    TOTEN  =     -1141.68705315 eV

  energy without entropy =    -1141.66346167  energy(sigma->0) =    -1141.67525741


--------------------------------------------------------------------------------------------------------




--------------------------------------- Iteration      1(  24)  ---------------------------------------


    POTLOK:  cpu time      0.0567: real time      0.0567
    SETDIJ:  cpu time      0.9616: real time      0.9620
    EDDIAG:  cpu time      0.7085: real time      0.7089
  RMM-DIIS:  cpu time      3.0827: real time      3.0846
    ORTHCH:  cpu time      0.1323: real time      0.1323
       DOS:  cpu time      0.0008: real time      0.0008
    CHARGE:  cpu time      0.2692: real time      0.2695
    MIXING:  cpu time      0.0040: real time      0.0040
    --------------------------------------------
      LOOP:  cpu time      5.2157: real time      5.2187

 eigenvalue-minimisations  :  5090
 total energy-change (2. order) : 0.3773701E+01  (-0.9799112E+00)
 number of electron    1168.0000015 magnetization      59.3533500
 augmentation part       26.5331160 magnetization      33.3698563

 Broyden mixing:
  rms(total) = 0.28764E+01    rms(broyden)= 0.28760E+01
  rms(prec ) = 0.29087E+01
  weight for this iteration     100.00

 eigenvalues of (default mixing * dielectric matrix)
  average eigenvalue GAMMA=   0.4827
  1.4260  1.4260  1.1372  0.6591  0.6591  0.5929  0.5929  0.3949  0.3949  0.2916
  0.2916  0.2741  0.1571  0.1571  0.1363  0.1981  0.1981  0.1047  0.0794

 Free energy of the ion-electron system (eV)
  ---------------------------------------------------
  alpha Z        PSCENC =      2397.92104513
  Ewald energy   TEWEN  =    136380.32841298
  -Hartree energ DENC   =   -219053.52857570
  -exchange      EXHF   =         0.00000000
  -V(xc)+E(xc)   XCENC  =      3608.91521931
  PAW double counting   =     86610.93123721   -85832.19120910
  entropy T*S    EENTRO =        -0.01381909
  eigenvalues    EBANDS =    -13027.05451979
  atomic energy  EATOM  =     87776.77885653
  Solvation  Ediel_sol  =         0.00000000
  ---------------------------------------------------
  free energy    TOTEN  =     -1137.91335253 eV

  energy without entropy =    -1137.89953343  energy(sigma->0) =    -1137.90644298


--------------------------------------------------------------------------------------------------------




--------------------------------------- Iteration      1(  25)  ---------------------------------------


    POTLOK:  cpu time      0.0582: real time      0.0582
    SETDIJ:  cpu time      0.9726: real time      0.9732
    EDDIAG:  cpu time      0.7259: real time      0.7260
  RMM-DIIS:  cpu time      2.9792: real time      2.9810
    ORTHCH:  cpu time      0.1334: real time      0.1334
       DOS:  cpu time      0.0008: real time      0.0008
    CHARGE:  cpu time      0.2658: real time      0.2658
    MIXING:  cpu time      0.0039: real time      0.0039
    --------------------------------------------
      LOOP:  cpu time      5.1398: real time      5.1424

 eigenvalue-minimisations  :  4943
 total energy-change (2. order) :-0.1094437E+00  (-0.4607901E+00)
 number of electron    1168.0000015 magnetization      56.2350665
 augmentation part       26.5221215 magnetization      30.4455378

 Broyden mixing:
  rms(total) = 0.27750E+01    rms(broyden)= 0.27749E+01
  rms(prec ) = 0.28065E+01
  weight for this iteration     100.00

 eigenvalues of (default mixing * dielectric matrix)
  average eigenvalue GAMMA=   0.5184
  1.5716  1.5716  0.9826  0.7969  0.7969  0.6659  0.6659  0.4991  0.4991  0.3484
  0.3484  0.2916  0.2916  0.1570  0.1570  0.1363  0.2090  0.1942  0.1047  0.0794

 Free energy of the ion-electron system (eV)
  ---------------------------------------------------
  alpha Z        PSCENC =      2397.92104513
  Ewald energy   TEWEN  =    136380.32841298
  -Hartree energ DENC   =   -219103.76923699
  -exchange      EXHF   =         0.00000000
  -V(xc)+E(xc)   XCENC  =      3610.52847269
  PAW double counting   =     86642.25291025   -85856.32300547
  entropy T*S    EENTRO =        -0.00000413
  eigenvalues    EBANDS =    -12985.74024719
  atomic energy  EATOM  =     87776.77885653
  Solvation  Ediel_sol  =         0.00000000
  ---------------------------------------------------
  free energy    TOTEN  =     -1138.02279619 eV

  energy without entropy =    -1138.02279207  energy(sigma->0) =    -1138.02279413


--------------------------------------------------------------------------------------------------------




--------------------------------------- Iteration      1(  26)  ---------------------------------------


    POTLOK:  cpu time      0.0585: real time      0.0588
    SETDIJ:  cpu time      0.9621: real time      0.9626
    EDDIAG:  cpu time      0.7068: real time      0.7071
  RMM-DIIS:  cpu time      3.0440: real time      3.0458
    ORTHCH:  cpu time      0.1335: real time      0.1335
       DOS:  cpu time      0.0008: real time      0.0009
    CHARGE:  cpu time      0.2702: real time      0.2711
    MIXING:  cpu time      0.0039: real time      0.0039
    --------------------------------------------
      LOOP:  cpu time      5.1798: real time      5.1836

 eigenvalue-minimisations  :  5030
 total energy-change (2. order) :-0.8546670E+01  (-0.5193845E+00)
 number of electron    1168.0000015 magnetization      52.6992490
 augmentation part       26.4524454 magnetization      27.1252198

 Broyden mixing:
  rms(total) = 0.23795E+01    rms(broyden)= 0.23793E+01
  rms(prec ) = 0.24189E+01
  weight for this iteration     100.00

 eigenvalues of (default mixing * dielectric matrix)
  average eigenvalue GAMMA=   0.5351
  1.6213  1.6213  0.9257  0.9257  0.8641  0.7175  0.7175  0.5441  0.5441  0.3924
  0.3924  0.3193  0.3075  0.3075  0.1570  0.1570  0.1363  0.2053  0.1960  0.1047
  0.0794

 Free energy of the ion-electron system (eV)
  ---------------------------------------------------
  alpha Z        PSCENC =      2397.92104513
  Ewald energy   TEWEN  =    136380.32841298
  -Hartree energ DENC   =   -219189.82152071
  -exchange      EXHF   =         0.00000000
  -V(xc)+E(xc)   XCENC  =      3605.83438937
  PAW double counting   =     86671.11339478   -85880.70840013
  entropy T*S    EENTRO =        -0.00415861
  eigenvalues    EBANDS =    -12908.01148571
  atomic energy  EATOM  =     87776.77885653
  Solvation  Ediel_sol  =         0.00000000
  ---------------------------------------------------
  free energy    TOTEN  =     -1146.56946636 eV

  energy without entropy =    -1146.56530775  energy(sigma->0) =    -1146.56738706


--------------------------------------------------------------------------------------------------------




--------------------------------------- Iteration      1(  27)  ---------------------------------------


    POTLOK:  cpu time      0.0581: real time      0.0581
    SETDIJ:  cpu time      0.9648: real time      0.9649
    EDDIAG:  cpu time      0.7046: real time      0.7047
  RMM-DIIS:  cpu time      3.0561: real time      3.0572
    ORTHCH:  cpu time      0.1332: real time      0.1332
       DOS:  cpu time      0.0009: real time      0.0009
    CHARGE:  cpu time      0.2756: real time      0.2766
    MIXING:  cpu time      0.0038: real time      0.0039
    --------------------------------------------
      LOOP:  cpu time      5.1972: real time      5.1996

 eigenvalue-minimisations  :  5091
 total energy-change (2. order) :-0.1182888E+02  (-0.7005910E+00)
 number of electron    1168.0000016 magnetization      52.5562056
 augmentation part       26.2970886 magnetization      30.2558240

 Broyden mixing:
  rms(total) = 0.34359E+01    rms(broyden)= 0.34344E+01
  rms(prec ) = 0.38476E+01
  weight for this iteration     100.00

 eigenvalues of (default mixing * dielectric matrix)
  average eigenvalue GAMMA=   0.5116
  1.6055  1.6055  0.9326  0.9326  0.8619  0.7174  0.7174  0.5459  0.5459  0.3935
  0.3935  0.3067  0.3067  0.3156  0.1570  0.1570  0.2050  0.1961  0.1363  0.1047
  0.0794  0.0393

 Free energy of the ion-electron system (eV)
  ---------------------------------------------------
  alpha Z        PSCENC =      2397.92104513
  Ewald energy   TEWEN  =    136380.32841298
  -Hartree energ DENC   =   -219254.36818213
  -exchange      EXHF   =         0.00000000
  -V(xc)+E(xc)   XCENC  =      3598.60191429
  PAW double counting   =     86670.06500889   -85879.78132324
  entropy T*S    EENTRO =        -0.03694607
  eigenvalues    EBANDS =    -12847.90712911
  atomic energy  EATOM  =     87776.77885653
  Solvation  Ediel_sol  =         0.00000000
  ---------------------------------------------------
  free energy    TOTEN  =     -1158.39834272 eV

  energy without entropy =    -1158.36139665  energy(sigma->0) =    -1158.37986969


--------------------------------------------------------------------------------------------------------




--------------------------------------- Iteration      1(  28)  ---------------------------------------


    POTLOK:  cpu time      0.0588: real time      0.0588
    SETDIJ:  cpu time      0.9629: real time      0.9631
    EDDIAG:  cpu time      0.7018: real time      0.7018
  RMM-DIIS:  cpu time      2.5861: real time      2.5874
    ORTHCH:  cpu time      0.1333: real time      0.1333
       DOS:  cpu time      0.0008: real time      0.0008
    CHARGE:  cpu time      0.2689: real time      0.2689
    MIXING:  cpu time      0.0042: real time      0.0042
    --------------------------------------------
      LOOP:  cpu time      4.7168: real time      4.7183

 eigenvalue-minimisations  :  4377
 total energy-change (2. order) : 0.1228130E+01  (-0.6078723E-01)
 number of electron    1168.0000015 magnetization      51.2312358
 augmentation part       26.0118052 magnetization      26.0850777

 Broyden mixing:
  rms(total) = 0.21231E+01    rms(broyden)= 0.21222E+01
  rms(prec ) = 0.22061E+01
  weight for this iteration     100.00

 eigenvalues of (default mixing * dielectric matrix)
  average eigenvalue GAMMA=   0.5050
  1.6311  1.6311  0.9734  0.9734  0.8196  0.7136  0.7136  0.5570  0.5570  0.4018
  0.4018  0.3016  0.3016  0.2715  0.2715  0.1570  0.1570  0.2112  0.1942  0.1363
  0.1047  0.0794  0.0562

 Free energy of the ion-electron system (eV)
  ---------------------------------------------------
  alpha Z        PSCENC =      2397.92104513
  Ewald energy   TEWEN  =    136380.32841298
  -Hartree energ DENC   =   -219266.00309855
  -exchange      EXHF   =         0.00000000
  -V(xc)+E(xc)   XCENC  =      3598.52694410
  PAW double counting   =     86677.94397180   -85888.15178421
  entropy T*S    EENTRO =        -0.05024444
  eigenvalues    EBANDS =    -12834.46431651
  atomic energy  EATOM  =     87776.77885653
  Solvation  Ediel_sol  =         0.00000000
  ---------------------------------------------------
  free energy    TOTEN  =     -1157.17021315 eV

  energy without entropy =    -1157.11996871  energy(sigma->0) =    -1157.14509093


--------------------------------------------------------------------------------------------------------




--------------------------------------- Iteration      1(  29)  ---------------------------------------


    POTLOK:  cpu time      0.0574: real time      0.0574
    SETDIJ:  cpu time      0.9616: real time      0.9628
    EDDIAG:  cpu time      0.6869: real time      0.6871
  RMM-DIIS:  cpu time      2.8443: real time      2.8455
    ORTHCH:  cpu time      0.1334: real time      0.1334
       DOS:  cpu time      0.0008: real time      0.0008
    CHARGE:  cpu time      0.2745: real time      0.2745
    MIXING:  cpu time      0.0040: real time      0.0041
    --------------------------------------------
      LOOP:  cpu time      4.9630: real time      4.9657

 eigenvalue-minimisations  :  4756
 total energy-change (2. order) :-0.4871591E+01  (-0.1491974E+00)
 number of electron    1168.0000016 magnetization      50.4543614
 augmentation part       26.0443410 magnetization      28.0258130

 Broyden mixing:
  rms(total) = 0.32723E+01    rms(broyden)= 0.32714E+01
  rms(prec ) = 0.36951E+01
  weight for this iteration     100.00

 eigenvalues of (default mixing * dielectric matrix)
  average eigenvalue GAMMA=   0.5024
  1.6456  1.6456  0.9940  0.9940  0.8154  0.6701  0.6701  0.5600  0.5600  0.4013
  0.4013  0.3589  0.3589  0.2986  0.2986  0.3052  0.1570  0.1570  0.1363  0.2061
  0.1956  0.1047  0.0794  0.0437

 Free energy of the ion-electron system (eV)
  ---------------------------------------------------
  alpha Z        PSCENC =      2397.92104513
  Ewald energy   TEWEN  =    136380.32841298
  -Hartree energ DENC   =   -219271.65910454
  -exchange      EXHF   =         0.00000000
  -V(xc)+E(xc)   XCENC  =      3595.42063160
  PAW double counting   =     86673.74725227   -85884.06938283
  entropy T*S    EENTRO =        -0.02204282
  eigenvalues    EBANDS =    -12830.48747253
  atomic energy  EATOM  =     87776.77885653
  Solvation  Ediel_sol  =         0.00000000
  ---------------------------------------------------
  free energy    TOTEN  =     -1162.04180421 eV

  energy without entropy =    -1162.01976139  energy(sigma->0) =    -1162.03078280


--------------------------------------------------------------------------------------------------------




--------------------------------------- Iteration      1(  30)  ---------------------------------------


    POTLOK:  cpu time      0.0578: real time      0.0578
    SETDIJ:  cpu time      0.9635: real time      0.9640
    EDDIAG:  cpu time      0.6881: real time      0.6885
  RMM-DIIS:  cpu time      2.7101: real time      2.7113
    ORTHCH:  cpu time      0.1335: real time      0.1335
       DOS:  cpu time      0.0009: real time      0.0009
    CHARGE:  cpu time      0.2731: real time      0.2731
    MIXING:  cpu time      0.0041: real time      0.0041
    --------------------------------------------
      LOOP:  cpu time      4.8310: real time      4.8332

 eigenvalue-minimisations  :  4559
 total energy-change (2. order) :-0.1302525E+01  (-0.7321958E-01)
 number of electron    1168.0000015 magnetization      50.1876159
 augmentation part       25.9366015 magnetization      26.3277515

 Broyden mixing:
  rms(total) = 0.28570E+01    rms(broyden)= 0.28568E+01
  rms(prec ) = 0.31863E+01
  weight for this iteration     100.00

 eigenvalues of (default mixing * dielectric matrix)
  average eigenvalue GAMMA=   0.4872
  1.6398  1.6398  0.9936  0.9936  0.8034  0.6641  0.6641  0.5571  0.5571  0.4054
  0.4054  0.3730  0.3730  0.3005  0.3005  0.3051  0.1570  0.1570  0.2053  0.1960
  0.1363  0.1047  0.0794  0.1244  0.0452

 Free energy of the ion-electron system (eV)
  ---------------------------------------------------
  alpha Z        PSCENC =      2397.92104513
  Ewald energy   TEWEN  =    136380.32841298
  -Hartree energ DENC   =   -219278.00774582
  -exchange      EXHF   =         0.00000000
  -V(xc)+E(xc)   XCENC  =      3594.16356432
  PAW double counting   =     86692.67553893   -85902.03710596
  entropy T*S    EENTRO =        -0.04868862
  eigenvalues    EBANDS =    -12825.11820713
  atomic energy  EATOM  =     87776.77885653
  Solvation  Ediel_sol  =         0.00000000
  ---------------------------------------------------
  free energy    TOTEN  =     -1163.34432962 eV

  energy without entropy =    -1163.29564100  energy(sigma->0) =    -1163.31998531


--------------------------------------------------------------------------------------------------------




--------------------------------------- Iteration      1(  31)  ---------------------------------------


    POTLOK:  cpu time      0.0576: real time      0.0576
    SETDIJ:  cpu time      0.9716: real time      0.9722
    EDDIAG:  cpu time      0.6870: real time      0.6872
  RMM-DIIS:  cpu time      2.5444: real time      2.5468
    ORTHCH:  cpu time      0.1333: real time      0.1338
       DOS:  cpu time      0.0008: real time      0.0008
    CHARGE:  cpu time      0.2699: real time      0.2699
    MIXING:  cpu time      0.0042: real time      0.0042
    --------------------------------------------
      LOOP:  cpu time      4.6687: real time      4.6724

 eigenvalue-minimisations  :  4340
 total energy-change (2. order) :-0.1134959E+01  (-0.2416061E-01)
 number of electron    1168.0000015 magnetization      50.0801802
 augmentation part       25.8461231 magnetization      25.5860718

 Broyden mixing:
  rms(total) = 0.26247E+01    rms(broyden)= 0.26246E+01
  rms(prec ) = 0.29094E+01
  weight for this iteration     100.00

 eigenvalues of (default mixing * dielectric matrix)
  average eigenvalue GAMMA=   0.4771
  1.6494  1.6494  0.9917  0.9917  0.7997  0.6684  0.6684  0.5568  0.5568  0.3540
  0.3540  0.3732  0.3732  0.3044  0.2986  0.2986  0.2061  0.1956  0.1570  0.1570
  0.1363  0.2176  0.2176  0.1047  0.0794  0.0447

 Free energy of the ion-electron system (eV)
  ---------------------------------------------------
  alpha Z        PSCENC =      2397.92104513
  Ewald energy   TEWEN  =    136380.32841298
  -Hartree energ DENC   =   -219279.00498434
  -exchange      EXHF   =         0.00000000
  -V(xc)+E(xc)   XCENC  =      3593.22727126
  PAW double counting   =     86695.21582020   -85904.56494544
  entropy T*S    EENTRO =        -0.05633616
  eigenvalues    EBANDS =    -12824.32442916
  atomic energy  EATOM  =     87776.77885653
  Solvation  Ediel_sol  =         0.00000000
  ---------------------------------------------------
  free energy    TOTEN  =     -1164.47928899 eV

  energy without entropy =    -1164.42295283  energy(sigma->0) =    -1164.45112091


--------------------------------------------------------------------------------------------------------




--------------------------------------- Iteration      1(  32)  ---------------------------------------


    POTLOK:  cpu time      0.0568: real time      0.0568
    SETDIJ:  cpu time      0.9619: real time      0.9621
    EDDIAG:  cpu time      0.6887: real time      0.6889
  RMM-DIIS:  cpu time      2.6703: real time      2.6713
    ORTHCH:  cpu time      0.1337: real time      0.1337
       DOS:  cpu time      0.0007: real time      0.0007
    CHARGE:  cpu time      0.2729: real time      0.2736
    MIXING:  cpu time      0.0043: real time      0.0043
    --------------------------------------------
      LOOP:  cpu time      4.7894: real time      4.7915

 eigenvalue-minimisations  :  4558
 total energy-change (2. order) :-0.5756928E+00  (-0.1246300E-01)
 number of electron    1168.0000015 magnetization      50.0485585
 augmentation part       25.7659669 magnetization      24.5942869

 Broyden mixing:
  rms(total) = 0.23989E+01    rms(broyden)= 0.23986E+01
  rms(prec ) = 0.26090E+01
  weight for this iteration     100.00

 eigenvalues of (default mixing * dielectric matrix)
  average eigenvalue GAMMA=   0.4733
  1.6589  1.6589  0.9915  0.9915  0.7992  0.6672  0.6672  0.5550  0.5550  0.4213
  0.4213  0.3788  0.3788  0.3033  0.2961  0.2961  0.2645  0.2645  0.1570  0.1570
  0.2065  0.1954  0.1363  0.1047  0.0794  0.1296  0.0447

 Free energy of the ion-electron system (eV)
  ---------------------------------------------------
  alpha Z        PSCENC =      2397.92104513
  Ewald energy   TEWEN  =    136380.32841298
  -Hartree energ DENC   =   -219278.18940809
  -exchange      EXHF   =         0.00000000
  -V(xc)+E(xc)   XCENC  =      3592.90435016
  PAW double counting   =     86694.42425175   -85903.36492970
  entropy T*S    EENTRO =        -0.04139611
  eigenvalues    EBANDS =    -12825.81616442
  atomic energy  EATOM  =     87776.77885653
  Solvation  Ediel_sol  =         0.00000000
  ---------------------------------------------------
  free energy    TOTEN  =     -1165.05498177 eV

  energy without entropy =    -1165.01358566  energy(sigma->0) =    -1165.03428372


--------------------------------------------------------------------------------------------------------




--------------------------------------- Iteration      1(  33)  ---------------------------------------


    POTLOK:  cpu time      0.0591: real time      0.0591
    SETDIJ:  cpu time      0.9621: real time      0.9622
    EDDIAG:  cpu time      0.6867: real time      0.6868
  RMM-DIIS:  cpu time      2.7993: real time      2.8005
    ORTHCH:  cpu time      0.1334: real time      0.1334
       DOS:  cpu time      0.0009: real time      0.0009
    CHARGE:  cpu time      0.2693: real time      0.2701
    MIXING:  cpu time      0.0045: real time      0.0045
    --------------------------------------------
      LOOP:  cpu time      4.9153: real time      4.9174

 eigenvalue-minimisations  :  4661
 total energy-change (2. order) :-0.4500009E-02  (-0.4624827E-02)
 number of electron    1168.0000015 magnetization      49.7028673
 augmentation part       25.7235861 magnetization      24.2596735

 Broyden mixing:
  rms(total) = 0.24128E+01    rms(broyden)= 0.24128E+01
  rms(prec ) = 0.26237E+01
  weight for this iteration     100.00

 eigenvalues of (default mixing * dielectric matrix)
  average eigenvalue GAMMA=   0.4936
  1.6604  1.6604  1.0011  1.0011  0.7955  0.6949  0.6949  0.5524  0.5524  0.5642
  0.5642  0.4115  0.4131  0.4131  0.3292  0.3292  0.2940  0.2940  0.2986  0.1570
  0.1570  0.1363  0.1948  0.2120  0.2120  0.1047  0.0794  0.0447

 Free energy of the ion-electron system (eV)
  ---------------------------------------------------
  alpha Z        PSCENC =      2397.92104513
  Ewald energy   TEWEN  =    136380.32841298
  -Hartree energ DENC   =   -219277.90432853
  -exchange      EXHF   =         0.00000000
  -V(xc)+E(xc)   XCENC  =      3592.86721452
  PAW double counting   =     86693.17839322   -85901.98531898
  entropy T*S    EENTRO =        -0.04371264
  eigenvalues    EBANDS =    -12826.20004402
  atomic energy  EATOM  =     87776.77885653
  Solvation  Ediel_sol  =         0.00000000
  ---------------------------------------------------
  free energy    TOTEN  =     -1165.05948178 eV

  energy without entropy =    -1165.01576914  energy(sigma->0) =    -1165.03762546


--------------------------------------------------------------------------------------------------------




--------------------------------------- Iteration      1(  34)  ---------------------------------------


    POTLOK:  cpu time      0.0584: real time      0.0584
    SETDIJ:  cpu time      0.9629: real time      0.9632
    EDDIAG:  cpu time      0.6865: real time      0.6866
  RMM-DIIS:  cpu time      2.8941: real time      2.8956
    ORTHCH:  cpu time      0.1335: real time      0.1336
       DOS:  cpu time      0.0009: real time      0.0009
    CHARGE:  cpu time      0.2722: real time      0.2725
    MIXING:  cpu time      0.0048: real time      0.0048
    --------------------------------------------
      LOOP:  cpu time      5.0133: real time      5.0155

 eigenvalue-minimisations  :  4861
 total energy-change (2. order) :-0.5350663E+00  (-0.1999979E-01)
 number of electron    1168.0000015 magnetization      48.2727859
 augmentation part       25.7109325 magnetization      24.3163918

 Broyden mixing:
  rms(total) = 0.25296E+01    rms(broyden)= 0.25292E+01
  rms(prec ) = 0.28236E+01
  weight for this iteration     100.00

 eigenvalues of (default mixing * dielectric matrix)
  average eigenvalue GAMMA=   0.5108
  1.6212  1.6212  1.0021  1.0021  0.7632  0.7632  0.7741  0.7741  0.7375  0.5984
  0.5984  0.4005  0.4564  0.4564  0.3648  0.3648  0.3060  0.3060  0.2854  0.2684
  0.2684  0.1570  0.1570  0.1363  0.2076  0.1951  0.1047  0.0794  0.0447

 Free energy of the ion-electron system (eV)
  ---------------------------------------------------
  alpha Z        PSCENC =      2397.92104513
  Ewald energy   TEWEN  =    136380.32841298
  -Hartree energ DENC   =   -219280.14079690
  -exchange      EXHF   =         0.00000000
  -V(xc)+E(xc)   XCENC  =      3592.29724185
  PAW double counting   =     86699.59388358   -85908.23478071
  entropy T*S    EENTRO =        -0.06563385
  eigenvalues    EBANDS =    -12824.07277665
  atomic energy  EATOM  =     87776.77885653
  Solvation  Ediel_sol  =         0.00000000
  ---------------------------------------------------
  free energy    TOTEN  =     -1165.59454804 eV

  energy without entropy =    -1165.52891418  energy(sigma->0) =    -1165.56173111


--------------------------------------------------------------------------------------------------------




--------------------------------------- Iteration      1(  35)  ---------------------------------------


    POTLOK:  cpu time      0.0588: real time      0.0588
    SETDIJ:  cpu time      0.9629: real time      0.9631
    EDDIAG:  cpu time      0.6864: real time      0.6867
  RMM-DIIS:  cpu time      3.1781: real time      3.1797
    ORTHCH:  cpu time      0.1330: real time      0.1330
       DOS:  cpu time      0.0006: real time      0.0006
    CHARGE:  cpu time      0.2706: real time      0.2707
    MIXING:  cpu time      0.0047: real time      0.0047
    --------------------------------------------
      LOOP:  cpu time      5.2953: real time      5.2973

 eigenvalue-minimisations  :  5237
 total energy-change (2. order) :-0.3683471E+01  (-0.1364575E+00)
 number of electron    1168.0000016 magnetization      47.8099576
 augmentation part       25.6001272 magnetization      24.0015023

 Broyden mixing:
  rms(total) = 0.22293E+01    rms(broyden)= 0.22279E+01
  rms(prec ) = 0.24744E+01
  weight for this iteration     100.00

 eigenvalues of (default mixing * dielectric matrix)
  average eigenvalue GAMMA=   0.5012
  1.6299  1.6299  1.0107  1.0107  0.7941  0.7941  0.7826  0.7826  0.7046  0.5968
  0.5968  0.3992  0.4532  0.4532  0.3702  0.3702  0.3069  0.3069  0.2808  0.2713
  0.2713  0.1570  0.1570  0.2074  0.1951  0.1363  0.1047  0.0794  0.1374  0.0447

 Free energy of the ion-electron system (eV)
  ---------------------------------------------------
  alpha Z        PSCENC =      2397.92104513
  Ewald energy   TEWEN  =    136380.32841298
  -Hartree energ DENC   =   -219293.55908731
  -exchange      EXHF   =         0.00000000
  -V(xc)+E(xc)   XCENC  =      3589.35776636
  PAW double counting   =     86734.33613066   -85942.24060145
  entropy T*S    EENTRO =        -0.06527603
  eigenvalues    EBANDS =    -12812.13526597
  atomic energy  EATOM  =     87776.77885653
  Solvation  Ediel_sol  =         0.00000000
  ---------------------------------------------------
  free energy    TOTEN  =     -1169.27801909 eV

  energy without entropy =    -1169.21274306  energy(sigma->0) =    -1169.24538108


--------------------------------------------------------------------------------------------------------




--------------------------------------- Iteration      1(  36)  ---------------------------------------


    POTLOK:  cpu time      0.0586: real time      0.0586
    SETDIJ:  cpu time      0.9634: real time      0.9639
    EDDIAG:  cpu time      0.6925: real time      0.6929
  RMM-DIIS:  cpu time      2.9698: real time      2.9712
    ORTHCH:  cpu time      0.1324: real time      0.1324
       DOS:  cpu time      0.0009: real time      0.0009
    CHARGE:  cpu time      0.2701: real time      0.2701
    MIXING:  cpu time      0.0054: real time      0.0054
    --------------------------------------------
      LOOP:  cpu time      5.0931: real time      5.0955

 eigenvalue-minimisations  :  4981
 total energy-change (2. order) :-0.5388692E+00  (-0.5491054E-01)
 number of electron    1168.0000015 magnetization      46.9771737
 augmentation part       25.5112044 magnetization      22.6977292

 Broyden mixing:
  rms(total) = 0.19601E+01    rms(broyden)= 0.19594E+01
  rms(prec ) = 0.21666E+01
  weight for this iteration     100.00

 eigenvalues of (default mixing * dielectric matrix)
  average eigenvalue GAMMA=   0.5028
  1.6368  1.6368  1.0261  1.0261  0.8326  0.8326  0.7583  0.7583  0.6945  0.3851
  0.5709  0.5709  0.5131  0.5131  0.4094  0.4094  0.3294  0.3294  0.2989  0.2989
  0.2936  0.1570  0.1570  0.2392  0.2077  0.1950  0.1363  0.1047  0.0794  0.1415
  0.0447

 Free energy of the ion-electron system (eV)
  ---------------------------------------------------
  alpha Z        PSCENC =      2397.92104513
  Ewald energy   TEWEN  =    136380.32841298
  -Hartree energ DENC   =   -219291.07360864
  -exchange      EXHF   =         0.00000000
  -V(xc)+E(xc)   XCENC  =      3588.60197892
  PAW double counting   =     86734.66981045   -85942.44716820
  entropy T*S    EENTRO =        -0.07226709
  eigenvalues    EBANDS =    -12814.52394833
  atomic energy  EATOM  =     87776.77885653
  Solvation  Ediel_sol  =         0.00000000
  ---------------------------------------------------
  free energy    TOTEN  =     -1169.81688825 eV

  energy without entropy =    -1169.74462116  energy(sigma->0) =    -1169.78075470


--------------------------------------------------------------------------------------------------------




--------------------------------------- Iteration      1(  37)  ---------------------------------------


    POTLOK:  cpu time      0.0584: real time      0.0584
    SETDIJ:  cpu time      0.9725: real time      0.9728
    EDDIAG:  cpu time      0.6900: real time      0.6905
  RMM-DIIS:  cpu time      3.0749: real time      3.0770
    ORTHCH:  cpu time      0.1336: real time      0.1336
       DOS:  cpu time      0.0010: real time      0.0010
    CHARGE:  cpu time      0.2693: real time      0.2693
    MIXING:  cpu time      0.0062: real time      0.0062
    --------------------------------------------
      LOOP:  cpu time      5.2058: real time      5.2088

 eigenvalue-minimisations  :  5130
 total energy-change (2. order) :-0.2096396E+01  (-0.6767906E-01)
 number of electron    1168.0000015 magnetization      46.2692496
 augmentation part       25.4506737 magnetization      21.1954952

 Broyden mixing:
  rms(total) = 0.17951E+01    rms(broyden)= 0.17946E+01
  rms(prec ) = 0.19827E+01
  weight for this iteration     100.00

 eigenvalues of (default mixing * dielectric matrix)
  average eigenvalue GAMMA=   0.5043
  1.6103  1.6103  1.0297  1.0297  0.9065  0.9065  0.7983  0.7983  0.6945  0.3864
  0.5824  0.5824  0.4812  0.4812  0.4401  0.4401  0.3566  0.3566  0.3114  0.3114
  0.2911  0.2911  0.1570  0.1570  0.1363  0.2466  0.1950  0.2077  0.1047  0.0794
  0.1139  0.0447

 Free energy of the ion-electron system (eV)
  ---------------------------------------------------
  alpha Z        PSCENC =      2397.92104513
  Ewald energy   TEWEN  =    136380.32841298
  -Hartree energ DENC   =   -219295.04819884
  -exchange      EXHF   =         0.00000000
  -V(xc)+E(xc)   XCENC  =      3586.64529105
  PAW double counting   =     86745.87808682   -85952.94451196
  entropy T*S    EENTRO =        -0.07631660
  eigenvalues    EBANDS =    -12811.39594933
  atomic energy  EATOM  =     87776.77885653
  Solvation  Ediel_sol  =         0.00000000
  ---------------------------------------------------
  free energy    TOTEN  =     -1171.91328423 eV

  energy without entropy =    -1171.83696763  energy(sigma->0) =    -1171.87512593


--------------------------------------------------------------------------------------------------------




--------------------------------------- Iteration      1(  38)  ---------------------------------------


    POTLOK:  cpu time      0.0583: real time      0.0583
    SETDIJ:  cpu time      0.9641: real time      0.9646
    EDDIAG:  cpu time      0.6903: real time      0.6907
  RMM-DIIS:  cpu time      2.9983: real time      3.0002
    ORTHCH:  cpu time      0.1332: real time      0.1332
       DOS:  cpu time      0.0008: real time      0.0008
    CHARGE:  cpu time      0.2683: real time      0.2683
    MIXING:  cpu time      0.0063: real time      0.0063
    --------------------------------------------
      LOOP:  cpu time      5.1197: real time      5.1226

 eigenvalue-minimisations  :  5029
 total energy-change (2. order) :-0.1399349E+01  (-0.4848302E-01)
 number of electron    1168.0000015 magnetization      45.4560677
 augmentation part       25.4209967 magnetization      20.1217580

 Broyden mixing:
  rms(total) = 0.17400E+01    rms(broyden)= 0.17398E+01
  rms(prec ) = 0.19305E+01
  weight for this iteration     100.00

 eigenvalues of (default mixing * dielectric matrix)
  average eigenvalue GAMMA=   0.5197
  1.6705  1.6705  1.0741  1.0741  0.9108  0.9108  0.8302  0.8302  0.7382  0.5771
  0.5771  0.6050  0.6050  0.3873  0.4737  0.4737  0.3825  0.3825  0.3246  0.3246
  0.3020  0.3020  0.2844  0.1570  0.1570  0.1363  0.1950  0.2078  0.2364  0.1047
  0.0794  0.1200  0.0447

 Free energy of the ion-electron system (eV)
  ---------------------------------------------------
  alpha Z        PSCENC =      2397.92104513
  Ewald energy   TEWEN  =    136380.32841298
  -Hartree energ DENC   =   -219300.04795768
  -exchange      EXHF   =         0.00000000
  -V(xc)+E(xc)   XCENC  =      3585.41808889
  PAW double counting   =     86761.27304963   -85967.90836677
  entropy T*S    EENTRO =        -0.04824669
  eigenvalues    EBANDS =    -12807.02751506
  atomic energy  EATOM  =     87776.77885653
  Solvation  Ediel_sol  =         0.00000000
  ---------------------------------------------------
  free energy    TOTEN  =     -1173.31263303 eV

  energy without entropy =    -1173.26438635  energy(sigma->0) =    -1173.28850969


--------------------------------------------------------------------------------------------------------




--------------------------------------- Iteration      1(  39)  ---------------------------------------


    POTLOK:  cpu time      0.0577: real time      0.0577
    SETDIJ:  cpu time      0.9642: real time      0.9645
    EDDIAG:  cpu time      0.7047: real time      0.7050
  RMM-DIIS:  cpu time      3.0547: real time      3.0565
    ORTHCH:  cpu time      0.1334: real time      0.1334
       DOS:  cpu time      0.0008: real time      0.0008
    CHARGE:  cpu time      0.2699: real time      0.2704
    MIXING:  cpu time      0.0053: real time      0.0053
    --------------------------------------------
      LOOP:  cpu time      5.1906: real time      5.1936

 eigenvalue-minimisations  :  5145
 total energy-change (2. order) :-0.2141984E+01  (-0.7171278E-01)
 number of electron    1168.0000015 magnetization      43.7972788
 augmentation part       25.4628642 magnetization      18.6887095

 Broyden mixing:
  rms(total) = 0.15758E+01    rms(broyden)= 0.15755E+01
  rms(prec ) = 0.17448E+01
  weight for this iteration     100.00

 eigenvalues of (default mixing * dielectric matrix)
  average eigenvalue GAMMA=   0.5389
  1.8487  1.8487  1.1983  1.1983  0.8767  0.8767  0.7668  0.7668  0.6867  0.6867
  0.7621  0.6433  0.6433  0.3874  0.5088  0.5088  0.4030  0.4030  0.3380  0.3380
  0.3102  0.3102  0.3085  0.1570  0.1570  0.2517  0.2517  0.2077  0.1950  0.1363
  0.1047  0.0794  0.1190  0.0447

 Free energy of the ion-electron system (eV)
  ---------------------------------------------------
  alpha Z        PSCENC =      2397.92104513
  Ewald energy   TEWEN  =    136380.32841298
  -Hartree energ DENC   =   -219305.96029094
  -exchange      EXHF   =         0.00000000
  -V(xc)+E(xc)   XCENC  =      3583.77457356
  PAW double counting   =     86778.15669702   -85983.10182989
  entropy T*S    EENTRO =        -0.05160375
  eigenvalues    EBANDS =    -12803.30047783
  atomic energy  EATOM  =     87776.77885653
  Solvation  Ediel_sol  =         0.00000000
  ---------------------------------------------------
  free energy    TOTEN  =     -1175.45461718 eV

  energy without entropy =    -1175.40301343  energy(sigma->0) =    -1175.42881531


--------------------------------------------------------------------------------------------------------




--------------------------------------- Iteration      1(  40)  ---------------------------------------


    POTLOK:  cpu time      0.0578: real time      0.0578
    SETDIJ:  cpu time      0.9650: real time      0.9651
    EDDIAG:  cpu time      0.7229: real time      0.7229
  RMM-DIIS:  cpu time      3.1697: real time      3.1709
    ORTHCH:  cpu time      0.1322: real time      0.1330
       DOS:  cpu time      0.0008: real time      0.0008
    CHARGE:  cpu time      0.2678: real time      0.2678
    MIXING:  cpu time      0.0065: real time      0.0065
    --------------------------------------------
      LOOP:  cpu time      5.3226: real time      5.3248

 eigenvalue-minimisations  :  5290
 total energy-change (2. order) :-0.2839520E+01  (-0.1382560E+00)
 number of electron    1168.0000015 magnetization      42.7208556
 augmentation part       25.4977416 magnetization      17.4515691

 Broyden mixing:
  rms(total) = 0.14490E+01    rms(broyden)= 0.14488E+01
  rms(prec ) = 0.15974E+01
  weight for this iteration     100.00

 eigenvalues of (default mixing * dielectric matrix)
  average eigenvalue GAMMA=   0.5493
  1.9894  1.9894  1.2217  1.2217  0.8246  0.8246  0.7836  0.7836  0.7829  0.7829
  0.6728  0.6728  0.6670  0.3874  0.5353  0.5353  0.4347  0.4347  0.3635  0.3635
  0.3228  0.3228  0.2972  0.2972  0.2754  0.1570  0.1570  0.1363  0.1950  0.2078
  0.2386  0.1047  0.0794  0.1191  0.0447

 Free energy of the ion-electron system (eV)
  ---------------------------------------------------
  alpha Z        PSCENC =      2397.92104513
  Ewald energy   TEWEN  =    136380.32841298
  -Hartree energ DENC   =   -219319.25260076
  -exchange      EXHF   =         0.00000000
  -V(xc)+E(xc)   XCENC  =      3581.26884668
  PAW double counting   =     86801.66983011   -86003.44675929
  entropy T*S    EENTRO =        -0.05058983
  eigenvalues    EBANDS =    -12793.51117862
  atomic energy  EATOM  =     87776.77885653
  Solvation  Ediel_sol  =         0.00000000
  ---------------------------------------------------
  free energy    TOTEN  =     -1178.29413706 eV

  energy without entropy =    -1178.24354723  energy(sigma->0) =    -1178.26884215


--------------------------------------------------------------------------------------------------------




--------------------------------------- Iteration      1(  41)  ---------------------------------------


    POTLOK:  cpu time      0.0575: real time      0.0575
    SETDIJ:  cpu time      0.9756: real time      0.9758
    EDDIAG:  cpu time      0.7035: real time      0.7037
  RMM-DIIS:  cpu time      3.0965: real time      3.0983
    ORTHCH:  cpu time      0.1320: real time      0.1320
       DOS:  cpu time      0.0009: real time      0.0009
    CHARGE:  cpu time      0.2626: real time      0.2626
    MIXING:  cpu time      0.0059: real time      0.0059
    --------------------------------------------
      LOOP:  cpu time      5.2346: real time      5.2367

 eigenvalue-minimisations  :  5187
 total energy-change (2. order) :-0.1958718E+01  (-0.9321851E-01)
 number of electron    1168.0000015 magnetization      42.3446568
 augmentation part       25.3589520 magnetization      17.1684394

 Broyden mixing:
  rms(total) = 0.11543E+01    rms(broyden)= 0.11536E+01
  rms(prec ) = 0.12135E+01
  weight for this iteration     100.00

 eigenvalues of (default mixing * dielectric matrix)
  average eigenvalue GAMMA=   0.5409
  1.9781  1.9781  1.1340  1.1340  0.9387  0.9387  0.8320  0.8320  0.7825  0.7825
  0.6259  0.6259  0.3873  0.6455  0.5312  0.5312  0.4203  0.4203  0.3705  0.3705
  0.3302  0.3302  0.2947  0.2947  0.1570  0.1570  0.1363  0.1950  0.2078  0.2587
  0.2587  0.2465  0.1047  0.0794  0.1191  0.0447

 Free energy of the ion-electron system (eV)
  ---------------------------------------------------
  alpha Z        PSCENC =      2397.92104513
  Ewald energy   TEWEN  =    136380.32841298
  -Hartree energ DENC   =   -219318.34586386
  -exchange      EXHF   =         0.00000000
  -V(xc)+E(xc)   XCENC  =      3579.12390404
  PAW double counting   =     86793.98586168   -85994.11748578
  entropy T*S    EENTRO =        -0.03670135
  eigenvalues    EBANDS =    -12795.89088480
  atomic energy  EATOM  =     87776.77885653
  Solvation  Ediel_sol  =         0.00000000
  ---------------------------------------------------
  free energy    TOTEN  =     -1180.25285542 eV

  energy without entropy =    -1180.21615408  energy(sigma->0) =    -1180.23450475


--------------------------------------------------------------------------------------------------------




--------------------------------------- Iteration      1(  42)  ---------------------------------------


    POTLOK:  cpu time      0.0580: real time      0.0580
    SETDIJ:  cpu time      0.9798: real time      0.9804
    EDDIAG:  cpu time      0.7207: real time      0.7211
  RMM-DIIS:  cpu time      2.9105: real time      2.9117
    ORTHCH:  cpu time      0.1324: real time      0.1326
       DOS:  cpu time      0.0007: real time      0.0007
    CHARGE:  cpu time      0.2663: real time      0.2664
    MIXING:  cpu time      0.0061: real time      0.0061
    --------------------------------------------
      LOOP:  cpu time      5.0745: real time      5.0769

 eigenvalue-minimisations  :  4757
 total energy-change (2. order) :-0.6519137E+00  (-0.2068526E-01)
 number of electron    1168.0000015 magnetization      42.0847195
 augmentation part       25.3379585 magnetization      16.9203312

 Broyden mixing:
  rms(total) = 0.10354E+01    rms(broyden)= 0.10354E+01
  rms(prec ) = 0.10927E+01
  weight for this iteration     100.00

 eigenvalues of (default mixing * dielectric matrix)
  average eigenvalue GAMMA=   0.5428
  1.9847  1.9847  1.1350  1.1350  0.9626  0.9626  0.8548  0.8548  0.7729  0.7729
  0.5882  0.5882  0.3872  0.6420  0.5205  0.5205  0.4382  0.4382  0.4289  0.4289
  0.3613  0.3613  0.3217  0.3217  0.3025  0.3025  0.2692  0.1570  0.1570  0.2411
  0.2078  0.1950  0.1363  0.1047  0.0794  0.1191  0.0447

 Free energy of the ion-electron system (eV)
  ---------------------------------------------------
  alpha Z        PSCENC =      2397.92104513
  Ewald energy   TEWEN  =    136380.32841298
  -Hartree energ DENC   =   -219316.00434084
  -exchange      EXHF   =         0.00000000
  -V(xc)+E(xc)   XCENC  =      3578.52001889
  PAW double counting   =     86795.49784643   -85995.63025123
  entropy T*S    EENTRO =        -0.04284288
  eigenvalues    EBANDS =    -12798.27351419
  atomic energy  EATOM  =     87776.77885653
  Solvation  Ediel_sol  =         0.00000000
  ---------------------------------------------------
  free energy    TOTEN  =     -1180.90476917 eV

  energy without entropy =    -1180.86192630  energy(sigma->0) =    -1180.88334773


--------------------------------------------------------------------------------------------------------




--------------------------------------- Iteration      1(  43)  ---------------------------------------


    POTLOK:  cpu time      0.0655: real time      0.0655
    SETDIJ:  cpu time      0.9737: real time      0.9742
    EDDIAG:  cpu time      0.7195: real time      0.7197
  RMM-DIIS:  cpu time      2.8214: real time      2.8230
    ORTHCH:  cpu time      0.1322: real time      0.1322
       DOS:  cpu time      0.0009: real time      0.0009
    CHARGE:  cpu time      0.2670: real time      0.2673
    MIXING:  cpu time      0.0066: real time      0.0066
    --------------------------------------------
      LOOP:  cpu time      4.9867: real time      4.9894

 eigenvalue-minimisations  :  4693
 total energy-change (2. order) :-0.5452140E+00  (-0.1493970E-01)
 number of electron    1168.0000015 magnetization      41.7709292
 augmentation part       25.3576820 magnetization      16.6141042

 Broyden mixing:
  rms(total) = 0.93636E+00    rms(broyden)= 0.93610E+00
  rms(prec ) = 0.97018E+00
  weight for this iteration     100.00

 eigenvalues of (default mixing * dielectric matrix)
  average eigenvalue GAMMA=   0.5422
  2.0077  2.0077  1.1124  1.1124  0.9754  0.9754  0.8661  0.8661  0.7746  0.7746
  0.3872  0.5599  0.5599  0.5504  0.5504  0.6292  0.5207  0.5207  0.4315  0.4315
  0.3686  0.3686  0.3313  0.3313  0.2989  0.2989  0.1570  0.1570  0.1363  0.2756
  0.2756  0.1950  0.2078  0.2414  0.1047  0.0794  0.1191  0.0447

 Free energy of the ion-electron system (eV)
  ---------------------------------------------------
  alpha Z        PSCENC =      2397.92104513
  Ewald energy   TEWEN  =    136380.32841298
  -Hartree energ DENC   =   -219314.07231552
  -exchange      EXHF   =         0.00000000
  -V(xc)+E(xc)   XCENC  =      3578.11071364
  PAW double counting   =     86792.60965594   -85992.34300616
  entropy T*S    EENTRO =        -0.05251219
  eigenvalues    EBANDS =    -12800.73083348
  atomic energy  EATOM  =     87776.77885653
  Solvation  Ediel_sol  =         0.00000000
  ---------------------------------------------------
  free energy    TOTEN  =     -1181.44998313 eV

  energy without entropy =    -1181.39747094  energy(sigma->0) =    -1181.42372703


--------------------------------------------------------------------------------------------------------




--------------------------------------- Iteration      1(  44)  ---------------------------------------


    POTLOK:  cpu time      0.0651: real time      0.0651
    SETDIJ:  cpu time      0.9650: real time      0.9656
    EDDIAG:  cpu time      0.7176: real time      0.7178
  RMM-DIIS:  cpu time      2.6492: real time      2.6505
    ORTHCH:  cpu time      0.1327: real time      0.1327
       DOS:  cpu time      0.0010: real time      0.0010
    CHARGE:  cpu time      0.2659: real time      0.2659
    MIXING:  cpu time      0.0062: real time      0.0062
    --------------------------------------------
      LOOP:  cpu time      4.8026: real time      4.8048

 eigenvalue-minimisations  :  4358
 total energy-change (2. order) :-0.3889899E+00  (-0.7410843E-02)
 number of electron    1168.0000015 magnetization      41.6297286
 augmentation part       25.3695765 magnetization      16.4800510

 Broyden mixing:
  rms(total) = 0.91043E+00    rms(broyden)= 0.91020E+00
  rms(prec ) = 0.93426E+00
  weight for this iteration     100.00

 eigenvalues of (default mixing * dielectric matrix)
  average eigenvalue GAMMA=   0.5401
  1.9938  1.9938  1.0862  1.0862  1.0142  1.0142  0.8483  0.8483  0.7678  0.7678
  0.6393  0.6393  0.3872  0.5914  0.5914  0.6131  0.5181  0.5181  0.4210  0.4210
  0.3727  0.3727  0.3336  0.3336  0.3029  0.3029  0.2880  0.2880  0.1570  0.1570
  0.1363  0.2667  0.1950  0.2078  0.2411  0.1047  0.0794  0.1191  0.0447

 Free energy of the ion-electron system (eV)
  ---------------------------------------------------
  alpha Z        PSCENC =      2397.92104513
  Ewald energy   TEWEN  =    136380.32841298
  -Hartree energ DENC   =   -219315.27089945
  -exchange      EXHF   =         0.00000000
  -V(xc)+E(xc)   XCENC  =      3577.82745488
  PAW double counting   =     86796.64774706   -85996.03504825
  entropy T*S    EENTRO =        -0.04898995
  eigenvalues    EBANDS =    -12799.98755196
  atomic energy  EATOM  =     87776.77885653
  Solvation  Ediel_sol  =         0.00000000
  ---------------------------------------------------
  free energy    TOTEN  =     -1181.83897304 eV

  energy without entropy =    -1181.78998309  energy(sigma->0) =    -1181.81447806


--------------------------------------------------------------------------------------------------------




--------------------------------------- Iteration      1(  45)  ---------------------------------------


    POTLOK:  cpu time      0.0576: real time      0.0576
    SETDIJ:  cpu time      0.9764: real time      0.9769
    EDDIAG:  cpu time      0.7198: real time      0.7201
  RMM-DIIS:  cpu time      2.4175: real time      2.4184
    ORTHCH:  cpu time      0.1324: real time      0.1324
       DOS:  cpu time      0.0009: real time      0.0009
    CHARGE:  cpu time      0.2656: real time      0.2664
    MIXING:  cpu time      0.0067: real time      0.0067
    --------------------------------------------
      LOOP:  cpu time      4.5769: real time      4.5794

 eigenvalue-minimisations  :  4002
 total energy-change (2. order) :-0.1113783E+00  (-0.3595790E-02)
 number of electron    1168.0000015 magnetization      41.3634517
 augmentation part       25.3575364 magnetization      16.2152353

 Broyden mixing:
  rms(total) = 0.90280E+00    rms(broyden)= 0.90278E+00
  rms(prec ) = 0.92629E+00
  weight for this iteration     100.00

 eigenvalues of (default mixing * dielectric matrix)
  average eigenvalue GAMMA=   0.5513
  2.0120  2.0120  1.0801  1.0801  0.9624  0.9624  0.9742  0.9742  0.7388  0.7388
  0.7681  0.7681  0.6330  0.6330  0.3872  0.6348  0.5167  0.5167  0.4167  0.4167
  0.4252  0.4252  0.3628  0.3628  0.3268  0.3268  0.3007  0.3007  0.1570  0.1570
  0.1363  0.2832  0.2694  0.1950  0.2078  0.2410  0.1047  0.0794  0.1191  0.0447

 Free energy of the ion-electron system (eV)
  ---------------------------------------------------
  alpha Z        PSCENC =      2397.92104513
  Ewald energy   TEWEN  =    136380.32841298
  -Hartree energ DENC   =   -219316.17845239
  -exchange      EXHF   =         0.00000000
  -V(xc)+E(xc)   XCENC  =      3577.70326567
  PAW double counting   =     86797.64935441   -85997.07485465
  entropy T*S    EENTRO =        -0.04539063
  eigenvalues    EBANDS =    -12799.03258839
  atomic energy  EATOM  =     87776.77885653
  Solvation  Ediel_sol  =         0.00000000
  ---------------------------------------------------
  free energy    TOTEN  =     -1181.95035133 eV

  energy without entropy =    -1181.90496071  energy(sigma->0) =    -1181.92765602


--------------------------------------------------------------------------------------------------------




--------------------------------------- Iteration      1(  46)  ---------------------------------------


    POTLOK:  cpu time      0.0580: real time      0.0580
    SETDIJ:  cpu time      0.9629: real time      0.9631
    EDDIAG:  cpu time      0.7049: real time      0.7051
  RMM-DIIS:  cpu time      2.6929: real time      2.6952
    ORTHCH:  cpu time      0.1335: real time      0.1335
       DOS:  cpu time      0.0008: real time      0.0008
    CHARGE:  cpu time      0.2672: real time      0.2672
    MIXING:  cpu time      0.0069: real time      0.0069
    --------------------------------------------
      LOOP:  cpu time      4.8270: real time      4.8297

 eigenvalue-minimisations  :  4508
 total energy-change (2. order) :-0.3045896E+00  (-0.7476429E-02)
 number of electron    1168.0000015 magnetization      40.6721745
 augmentation part       25.3289539 magnetization      15.5236346

 Broyden mixing:
  rms(total) = 0.87330E+00    rms(broyden)= 0.87326E+00
  rms(prec ) = 0.89455E+00
  weight for this iteration     100.00

 eigenvalues of (default mixing * dielectric matrix)
  average eigenvalue GAMMA=   0.5756
  2.0398  2.0398  1.2956  1.2956  1.1139  1.1139  0.9345  0.9345  0.8118  0.8118
  0.7174  0.7174  0.6694  0.6694  0.3872  0.6710  0.5294  0.5294  0.5055  0.5055
  0.4448  0.4448  0.3842  0.3842  0.3532  0.3532  0.3113  0.3113  0.3046  0.3046
  0.1570  0.1570  0.1363  0.2682  0.1950  0.2078  0.2409  0.1047  0.0794  0.1191
  0.0447

 Free energy of the ion-electron system (eV)
  ---------------------------------------------------
  alpha Z        PSCENC =      2397.92104513
  Ewald energy   TEWEN  =    136380.32841298
  -Hartree energ DENC   =   -219316.08657160
  -exchange      EXHF   =         0.00000000
  -V(xc)+E(xc)   XCENC  =      3577.43488395
  PAW double counting   =     86792.56219938   -85991.84399993
  entropy T*S    EENTRO =        -0.03750801
  eigenvalues    EBANDS =    -12799.31225938
  atomic energy  EATOM  =     87776.77885653
  Solvation  Ediel_sol  =         0.00000000
  ---------------------------------------------------
  free energy    TOTEN  =     -1182.25494095 eV

  energy without entropy =    -1182.21743294  energy(sigma->0) =    -1182.23618694


--------------------------------------------------------------------------------------------------------




--------------------------------------- Iteration      1(  47)  ---------------------------------------


    POTLOK:  cpu time      0.0582: real time      0.0582
    SETDIJ:  cpu time      0.9721: real time      0.9726
    EDDIAG:  cpu time      0.7049: real time      0.7053
  RMM-DIIS:  cpu time      3.0283: real time      3.0300
    ORTHCH:  cpu time      0.1331: real time      0.1331
       DOS:  cpu time      0.0009: real time      0.0009
    CHARGE:  cpu time      0.2648: real time      0.2655
    MIXING:  cpu time      0.0073: real time      0.0074
    --------------------------------------------
      LOOP:  cpu time      5.1697: real time      5.1729

 eigenvalue-minimisations  :  5035
 total energy-change (2. order) :-0.4917811E+00  (-0.3553211E-01)
 number of electron    1168.0000015 magnetization      39.5055115
 augmentation part       25.3682234 magnetization      14.3650474

 Broyden mixing:
  rms(total) = 0.79007E+00    rms(broyden)= 0.78993E+00
  rms(prec ) = 0.81535E+00
  weight for this iteration     100.00

 eigenvalues of (default mixing * dielectric matrix)
  average eigenvalue GAMMA=   0.5909
  2.1140  2.1140  1.5170  1.5170  1.1153  1.1153  1.0158  1.0158  0.8363  0.8363
  0.6666  0.6666  0.6942  0.6942  0.3872  0.5906  0.5906  0.6416  0.5047  0.5047
  0.4516  0.4516  0.4016  0.4016  0.3572  0.3572  0.1570  0.1570  0.0794  0.1363
  0.1047  0.3220  0.3220  0.3029  0.3029  0.2982  0.1950  0.2078  0.2694  0.2411
  0.1191  0.0447

 Free energy of the ion-electron system (eV)
  ---------------------------------------------------
  alpha Z        PSCENC =      2397.92104513
  Ewald energy   TEWEN  =    136380.32841298
  -Hartree energ DENC   =   -219316.62824730
  -exchange      EXHF   =         0.00000000
  -V(xc)+E(xc)   XCENC  =      3577.28651068
  PAW double counting   =     86791.91808623   -85990.35086139
  entropy T*S    EENTRO =        -0.03151219
  eigenvalues    EBANDS =    -12799.96901277
  atomic energy  EATOM  =     87776.77885653
  Solvation  Ediel_sol  =         0.00000000
  ---------------------------------------------------
  free energy    TOTEN  =     -1182.74672208 eV

  energy without entropy =    -1182.71520989  energy(sigma->0) =    -1182.73096599


--------------------------------------------------------------------------------------------------------




--------------------------------------- Iteration      1(  48)  ---------------------------------------


    POTLOK:  cpu time      0.0571: real time      0.0571
    SETDIJ:  cpu time      0.9793: real time      0.9794
    EDDIAG:  cpu time      0.7036: real time      0.7036
  RMM-DIIS:  cpu time      3.1018: real time      3.1033
    ORTHCH:  cpu time      0.1314: real time      0.1320
       DOS:  cpu time      0.0008: real time      0.0008
    CHARGE:  cpu time      0.2665: real time      0.2665
    MIXING:  cpu time      0.0072: real time      0.0072
    --------------------------------------------
      LOOP:  cpu time      5.2477: real time      5.2500

 eigenvalue-minimisations  :  5192
 total energy-change (2. order) :-0.1333442E+01  (-0.6667010E-01)
 number of electron    1168.0000015 magnetization      38.7285241
 augmentation part       25.3820733 magnetization      15.1174402

 Broyden mixing:
  rms(total) = 0.91037E+00    rms(broyden)= 0.90923E+00
  rms(prec ) = 0.98640E+00
  weight for this iteration     100.00

 eigenvalues of (default mixing * dielectric matrix)
  average eigenvalue GAMMA=   0.5914
  2.1116  2.1116  1.6085  1.6085  1.1235  1.1235  1.0885  1.0885  0.8443  0.8443
  0.6671  0.6671  0.6982  0.6982  0.3872  0.6177  0.6177  0.6220  0.4965  0.4965
  0.4647  0.4647  0.4095  0.4095  0.3601  0.3601  0.3247  0.3247  0.3046  0.3046
  0.2982  0.1570  0.1570  0.2676  0.1363  0.2410  0.1950  0.2078  0.1047  0.0794
  0.1754  0.1191  0.0447

 Free energy of the ion-electron system (eV)
  ---------------------------------------------------
  alpha Z        PSCENC =      2397.92104513
  Ewald energy   TEWEN  =    136380.32841298
  -Hartree energ DENC   =   -219315.04461939
  -exchange      EXHF   =         0.00000000
  -V(xc)+E(xc)   XCENC  =      3576.38300841
  PAW double counting   =     86769.02358997   -85966.85931164
  entropy T*S    EENTRO =        -0.03819656
  eigenvalues    EBANDS =    -12802.57294955
  atomic energy  EATOM  =     87776.77885653
  Solvation  Ediel_sol  =         0.00000000
  ---------------------------------------------------
  free energy    TOTEN  =     -1184.08016411 eV

  energy without entropy =    -1184.04196755  energy(sigma->0) =    -1184.06106583


--------------------------------------------------------------------------------------------------------




--------------------------------------- Iteration      1(  49)  ---------------------------------------


    POTLOK:  cpu time      0.0592: real time      0.0592
    SETDIJ:  cpu time      0.9777: real time      0.9779
    EDDIAG:  cpu time      0.7054: real time      0.7055
  RMM-DIIS:  cpu time      3.0029: real time      3.0048
    ORTHCH:  cpu time      0.1331: real time      0.1331
       DOS:  cpu time      0.0007: real time      0.0007
    CHARGE:  cpu time      0.2654: real time      0.2654
    MIXING:  cpu time      0.0069: real time      0.0069
    --------------------------------------------
      LOOP:  cpu time      5.1513: real time      5.1536

 eigenvalue-minimisations  :  5028
 total energy-change (2. order) :-0.8014966E+00  (-0.2981643E-01)
 number of electron    1168.0000015 magnetization      37.8078558
 augmentation part       25.4261242 magnetization      14.2640302

 Broyden mixing:
  rms(total) = 0.87849E+00    rms(broyden)= 0.87826E+00
  rms(prec ) = 0.96679E+00
  weight for this iteration     100.00

 eigenvalues of (default mixing * dielectric matrix)
  average eigenvalue GAMMA=   0.5969
  2.1003  2.1003  1.6848  1.6848  1.1318  1.1318  1.1170  1.1170  0.8564  0.8564
  0.6675  0.6675  0.7192  0.7192  0.3872  0.6736  0.6736  0.6078  0.4918  0.4918
  0.4615  0.4615  0.3972  0.3972  0.3438  0.3438  0.3553  0.3553  0.1570  0.1570
  0.0794  0.1363  0.1047  0.3246  0.3246  0.3054  0.3054  0.2967  0.1950  0.2078
  0.2700  0.2411  0.1191  0.0447

 Free energy of the ion-electron system (eV)
  ---------------------------------------------------
  alpha Z        PSCENC =      2397.92104513
  Ewald energy   TEWEN  =    136380.32841298
  -Hartree energ DENC   =   -219314.24333923
  -exchange      EXHF   =         0.00000000
  -V(xc)+E(xc)   XCENC  =      3576.04982131
  PAW double counting   =     86760.01462530   -85957.61795367
  entropy T*S    EENTRO =        -0.03927346
  eigenvalues    EBANDS =    -12804.07385558
  atomic energy  EATOM  =     87776.77885653
  Solvation  Ediel_sol  =         0.00000000
  ---------------------------------------------------
  free energy    TOTEN  =     -1184.88166070 eV

  energy without entropy =    -1184.84238723  energy(sigma->0) =    -1184.86202396


--------------------------------------------------------------------------------------------------------




--------------------------------------- Iteration      1(  50)  ---------------------------------------


    POTLOK:  cpu time      0.0577: real time      0.0577
    SETDIJ:  cpu time      0.9765: real time      0.9770
    EDDIAG:  cpu time      0.7045: real time      0.7049
  RMM-DIIS:  cpu time      3.0160: real time      3.0186
    ORTHCH:  cpu time      0.1331: real time      0.1334
       DOS:  cpu time      0.0008: real time      0.0008
    CHARGE:  cpu time      0.2635: real time      0.2635
    MIXING:  cpu time      0.0088: real time      0.0088
    --------------------------------------------
      LOOP:  cpu time      5.1610: real time      5.1648

 eigenvalue-minimisations  :  5041
 total energy-change (2. order) :-0.1189436E+01  (-0.3159367E-01)
 number of electron    1168.0000015 magnetization      34.0510865
 augmentation part       25.3998613 magnetization      10.5256941

 Broyden mixing:
  rms(total) = 0.84142E+00    rms(broyden)= 0.84124E+00
  rms(prec ) = 0.93811E+00
  weight for this iteration     100.00

 eigenvalues of (default mixing * dielectric matrix)
  average eigenvalue GAMMA=   0.5564
  2.3743  1.5199  1.5199  1.0440  1.0440  0.9038  0.9038  0.8048  0.8048  0.3852
  0.6805  0.6805  0.7212  0.7212  0.6777  0.6777  0.4790  0.4790  0.4678  0.4678
  0.3817  0.3817  0.3913  0.3913  0.3332  0.3332  0.3125  0.3125  0.0438  0.0795
  0.1512  0.1512  0.1042  0.1128  0.3135  0.1838  0.1838  0.2210  0.2712  0.2463

 Free energy of the ion-electron system (eV)
  ---------------------------------------------------
  alpha Z        PSCENC =      2397.92104513
  Ewald energy   TEWEN  =    136380.32841298
  -Hartree energ DENC   =   -219310.75986585
  -exchange      EXHF   =         0.00000000
  -V(xc)+E(xc)   XCENC  =      3575.19634145
  PAW double counting   =     86752.93381943   -85950.33196852
  entropy T*S    EENTRO =        -0.04183149
  eigenvalues    EBANDS =    -12808.09590663
  atomic energy  EATOM  =     87776.77885653
  Solvation  Ediel_sol  =         0.00000000
  ---------------------------------------------------
  free energy    TOTEN  =     -1186.07109697 eV

  energy without entropy =    -1186.02926548  energy(sigma->0) =    -1186.05018123


--------------------------------------------------------------------------------------------------------




--------------------------------------- Iteration      1(  51)  ---------------------------------------


    POTLOK:  cpu time      0.0576: real time      0.0576
    SETDIJ:  cpu time      0.9681: real time      0.9683
    EDDIAG:  cpu time      0.7043: real time      0.7046
  RMM-DIIS:  cpu time      3.2539: real time      3.2559
    ORTHCH:  cpu time      0.1356: real time      0.1357
       DOS:  cpu time      0.0008: real time      0.0008
    CHARGE:  cpu time      0.2665: real time      0.2665
    MIXING:  cpu time      0.0077: real time      0.0081
    --------------------------------------------
      LOOP:  cpu time      5.3946: real time      5.3976

 eigenvalue-minimisations  :  5401
 total energy-change (2. order) :-0.3776438E+01  (-0.3247085E+00)
 number of electron    1168.0000015 magnetization      34.0872107
 augmentation part       25.0958462 magnetization      10.5473712

 Broyden mixing:
  rms(total) = 0.13066E+01    rms(broyden)= 0.13056E+01
  rms(prec ) = 0.14380E+01
  weight for this iteration     100.00

 eigenvalues of (default mixing * dielectric matrix)
  average eigenvalue GAMMA=   0.5432
  2.3759  1.5147  1.5147  1.0384  1.0384  0.9084  0.9084  0.8007  0.8007  0.3851
  0.6808  0.6808  0.7210  0.7210  0.6762  0.6762  0.4770  0.4770  0.4684  0.4684
  0.3779  0.3779  0.3930  0.3930  0.3325  0.3325  0.3132  0.3132  0.0378  0.3133
  0.1512  0.1512  0.0688  0.0790  0.1012  0.1065  0.1799  0.1799  0.2225  0.2709
  0.2440

 Free energy of the ion-electron system (eV)
  ---------------------------------------------------
  alpha Z        PSCENC =      2397.92104513
  Ewald energy   TEWEN  =    136380.32841298
  -Hartree energ DENC   =   -219303.15976076
  -exchange      EXHF   =         0.00000000
  -V(xc)+E(xc)   XCENC  =      3571.56708303
  PAW double counting   =     86713.48635949   -85909.62562356
  entropy T*S    EENTRO =        -0.03513199
  eigenvalues    EBANDS =    -12817.10877599
  atomic energy  EATOM  =     87776.77885653
  Solvation  Ediel_sol  =         0.00000000
  ---------------------------------------------------
  free energy    TOTEN  =     -1189.84753514 eV

  energy without entropy =    -1189.81240315  energy(sigma->0) =    -1189.82996914


--------------------------------------------------------------------------------------------------------




--------------------------------------- Iteration      1(  52)  ---------------------------------------


    POTLOK:  cpu time      0.0582: real time      0.0582
    SETDIJ:  cpu time      0.9770: real time      0.9771
    EDDIAG:  cpu time      0.7067: real time      0.7070
  RMM-DIIS:  cpu time      2.8193: real time      2.8214
    ORTHCH:  cpu time      0.1349: real time      0.1349
       DOS:  cpu time      0.0010: real time      0.0010
    CHARGE:  cpu time      0.2652: real time      0.2655
    MIXING:  cpu time      0.0075: real time      0.0075
    --------------------------------------------
      LOOP:  cpu time      4.9697: real time      4.9727

 eigenvalue-minimisations  :  4726
 total energy-change (2. order) : 0.5575540E-01  (-0.1277357E-01)
 number of electron    1168.0000015 magnetization      34.0275615
 augmentation part       25.1035203 magnetization      10.5081094

 Broyden mixing:
  rms(total) = 0.12729E+01    rms(broyden)= 0.12728E+01
  rms(prec ) = 0.14050E+01
  weight for this iteration     100.00

 eigenvalues of (default mixing * dielectric matrix)
  average eigenvalue GAMMA=   0.5404
  2.3746  1.5279  1.5279  1.0401  1.0401  0.9233  0.9233  0.7973  0.7973  0.3850
  0.6806  0.6806  0.7228  0.7228  0.6888  0.6888  0.1641  0.4860  0.4860  0.4669
  0.4669  0.3898  0.3898  0.3952  0.3952  0.0441  0.3348  0.3348  0.3122  0.3122
  0.3088  0.0795  0.1511  0.1511  0.1042  0.1159  0.1796  0.1796  0.1867  0.2233
  0.2430  0.2743

 Free energy of the ion-electron system (eV)
  ---------------------------------------------------
  alpha Z        PSCENC =      2397.92104513
  Ewald energy   TEWEN  =    136380.32841298
  -Hartree energ DENC   =   -219303.57450214
  -exchange      EXHF   =         0.00000000
  -V(xc)+E(xc)   XCENC  =      3571.64252188
  PAW double counting   =     86713.77963555   -85909.84148825
  entropy T*S    EENTRO =        -0.03552041
  eigenvalues    EBANDS =    -12816.79074101
  atomic energy  EATOM  =     87776.77885653
  Solvation  Ediel_sol  =         0.00000000
  ---------------------------------------------------
  free energy    TOTEN  =     -1189.79177973 eV

  energy without entropy =    -1189.75625932  energy(sigma->0) =    -1189.77401953


--------------------------------------------------------------------------------------------------------




--------------------------------------- Iteration      1(  53)  ---------------------------------------


    POTLOK:  cpu time      0.0604: real time      0.0605
    SETDIJ:  cpu time      0.9770: real time      0.9772
    EDDIAG:  cpu time      0.7061: real time      0.7062
  RMM-DIIS:  cpu time      2.5710: real time      2.5723
    ORTHCH:  cpu time      0.1332: real time      0.1332
       DOS:  cpu time      0.0009: real time      0.0009
    CHARGE:  cpu time      0.2647: real time      0.2647
    MIXING:  cpu time      0.0082: real time      0.0082
    --------------------------------------------
      LOOP:  cpu time      4.7217: real time      4.7234

 eigenvalue-minimisations  :  4236
 total energy-change (2. order) :-0.1228354E-01  (-0.2275428E-02)
 number of electron    1168.0000015 magnetization      34.1533594
 augmentation part       25.0967128 magnetization      10.6405541

 Broyden mixing:
  rms(total) = 0.12865E+01    rms(broyden)= 0.12865E+01
  rms(prec ) = 0.14192E+01
  weight for this iteration     100.00

 eigenvalues of (default mixing * dielectric matrix)
  average eigenvalue GAMMA=   0.5418
  2.3773  1.5125  1.5125  1.0336  1.0336  0.9035  0.9035  0.8017  0.8017  0.6806
  0.6806  0.7295  0.7295  0.3853  0.6869  0.6869  0.3584  0.3584  0.4894  0.4894
  0.4679  0.4679  0.4104  0.4104  0.3982  0.3982  0.0438  0.3374  0.3374  0.3125
  0.3125  0.0795  0.1509  0.1509  0.1043  0.1148  0.3066  0.2823  0.1867  0.1867
  0.2092  0.2291  0.2440

 Free energy of the ion-electron system (eV)
  ---------------------------------------------------
  alpha Z        PSCENC =      2397.92104513
  Ewald energy   TEWEN  =    136380.32841298
  -Hartree energ DENC   =   -219303.48798885
  -exchange      EXHF   =         0.00000000
  -V(xc)+E(xc)   XCENC  =      3571.62198066
  PAW double counting   =     86714.26945010   -85910.41202749
  entropy T*S    EENTRO =        -0.03613398
  eigenvalues    EBANDS =    -12816.78765835
  atomic energy  EATOM  =     87776.77885653
  Solvation  Ediel_sol  =         0.00000000
  ---------------------------------------------------
  free energy    TOTEN  =     -1189.80406327 eV

  energy without entropy =    -1189.76792929  energy(sigma->0) =    -1189.78599628


--------------------------------------------------------------------------------------------------------




--------------------------------------- Iteration      1(  54)  ---------------------------------------


    POTLOK:  cpu time      0.0646: real time      0.0646
    SETDIJ:  cpu time      0.9682: real time      0.9689
    EDDIAG:  cpu time      0.7062: real time      0.7064
  RMM-DIIS:  cpu time      2.9664: real time      2.9682
    ORTHCH:  cpu time      0.1332: real time      0.1332
       DOS:  cpu time      0.0007: real time      0.0007
    CHARGE:  cpu time      0.2727: real time      0.2727
    MIXING:  cpu time      0.0074: real time      0.0074
    --------------------------------------------
      LOOP:  cpu time      5.1194: real time      5.1223

 eigenvalue-minimisations  :  4926
 total energy-change (2. order) :-0.2011328E+00  (-0.8358974E-02)
 number of electron    1168.0000015 magnetization      34.1787279
 augmentation part       25.0858824 magnetization      10.6715441

 Broyden mixing:
  rms(total) = 0.12411E+01    rms(broyden)= 0.12410E+01
  rms(prec ) = 0.13755E+01
  weight for this iteration     100.00

 eigenvalues of (default mixing * dielectric matrix)
  average eigenvalue GAMMA=   0.5340
  2.3773  1.5104  1.5104  1.0306  1.0306  0.9034  0.9034  0.8036  0.8036  0.3850
  0.6806  0.6806  0.7296  0.7296  0.4251  0.4251  0.6863  0.6863  0.4901  0.4901
  0.4681  0.4681  0.4095  0.4095  0.3992  0.3992  0.3375  0.3375  0.3125  0.3125
  0.0420  0.1528  0.1528  0.0773  0.0773  0.3062  0.2848  0.1029  0.1102  0.2403
  0.2339  0.2042  0.1827  0.1909

 Free energy of the ion-electron system (eV)
  ---------------------------------------------------
  alpha Z        PSCENC =      2397.92104513
  Ewald energy   TEWEN  =    136380.32841298
  -Hartree energ DENC   =   -219301.98706656
  -exchange      EXHF   =         0.00000000
  -V(xc)+E(xc)   XCENC  =      3571.30017126
  PAW double counting   =     86712.37491662   -85908.54059439
  entropy T*S    EENTRO =        -0.03196025
  eigenvalues    EBANDS =    -12818.14897740
  atomic energy  EATOM  =     87776.77885653
  Solvation  Ediel_sol  =         0.00000000
  ---------------------------------------------------
  free energy    TOTEN  =     -1190.00519607 eV

  energy without entropy =    -1189.97323582  energy(sigma->0) =    -1189.98921595


--------------------------------------------------------------------------------------------------------




--------------------------------------- Iteration      1(  55)  ---------------------------------------


    POTLOK:  cpu time      0.0595: real time      0.0595
    SETDIJ:  cpu time      0.9752: real time      0.9759
    EDDIAG:  cpu time      0.7055: real time      0.7059
  RMM-DIIS:  cpu time      2.4712: real time      2.4727
    ORTHCH:  cpu time      0.1323: real time      0.1323
       DOS:  cpu time      0.0008: real time      0.0008
    CHARGE:  cpu time      0.2664: real time      0.2664
    MIXING:  cpu time      0.0079: real time      0.0079
    --------------------------------------------
      LOOP:  cpu time      4.6188: real time      4.6214

 eigenvalue-minimisations  :  4189
 total energy-change (2. order) :-0.3307702E-01  (-0.1786169E-02)
 number of electron    1168.0000015 magnetization      34.2077802
 augmentation part       25.0883481 magnetization      10.7056765

 Broyden mixing:
  rms(total) = 0.12041E+01    rms(broyden)= 0.12041E+01
  rms(prec ) = 0.13367E+01
  weight for this iteration     100.00

 eigenvalues of (default mixing * dielectric matrix)
  average eigenvalue GAMMA=   0.5326
  2.3841  1.2031  1.2031  0.8133  0.8133  0.9621  0.9621  0.7799  0.7799  0.3773
  0.7029  0.7029  0.6154  0.6154  0.5287  0.5287  0.4820  0.4820  0.5628  0.4508
  0.4508  0.4328  0.4328  0.3137  0.3137  0.0434  0.0869  0.1045  0.1075  0.3400
  0.3400  0.3407  0.3407  0.1654  0.3220  0.2002  0.2831  0.2481  0.2481  0.2375

 Free energy of the ion-electron system (eV)
  ---------------------------------------------------
  alpha Z        PSCENC =      2397.92104513
  Ewald energy   TEWEN  =    136380.32841298
  -Hartree energ DENC   =   -219301.98486783
  -exchange      EXHF   =         0.00000000
  -V(xc)+E(xc)   XCENC  =      3571.21866934
  PAW double counting   =     86710.89670896   -85907.08848406
  entropy T*S    EENTRO =        -0.03380087
  eigenvalues    EBANDS =    -12818.07481329
  atomic energy  EATOM  =     87776.77885653
  Solvation  Ediel_sol  =         0.00000000
  ---------------------------------------------------
  free energy    TOTEN  =     -1190.03827310 eV

  energy without entropy =    -1190.00447223  energy(sigma->0) =    -1190.02137266


--------------------------------------------------------------------------------------------------------




--------------------------------------- Iteration      1(  56)  ---------------------------------------


    POTLOK:  cpu time      0.0587: real time      0.0587
    SETDIJ:  cpu time      0.9759: real time      0.9765
    EDDIAG:  cpu time      0.7227: real time      0.7231
  RMM-DIIS:  cpu time      3.1219: real time      3.1237
    ORTHCH:  cpu time      0.1319: real time      0.1320
       DOS:  cpu time      0.0008: real time      0.0008
    CHARGE:  cpu time      0.2653: real time      0.2653
    MIXING:  cpu time      0.0066: real time      0.0066
    --------------------------------------------
      LOOP:  cpu time      5.2839: real time      5.2867

 eigenvalue-minimisations  :  5245
 total energy-change (2. order) : 0.4902104E-01  (-0.3799515E-01)
 number of electron    1168.0000015 magnetization      34.1698159
 augmentation part       25.0445537 magnetization      10.6831934

 Broyden mixing:
  rms(total) = 0.10832E+01    rms(broyden)= 0.10825E+01
  rms(prec ) = 0.11939E+01
  weight for this iteration     100.00

 eigenvalues of (default mixing * dielectric matrix)
  average eigenvalue GAMMA=   0.5316
  2.3909  1.2406  1.2406  0.8014  0.8014  0.9431  0.9431  0.7660  0.7660  0.3773
  0.7110  0.7110  0.6178  0.6178  0.5558  0.5558  0.4815  0.4815  0.3585  0.3585
  0.4340  0.4340  0.4567  0.4567  0.4703  0.4703  0.0433  0.0878  0.1052  0.1082
  0.3492  0.3492  0.3286  0.3286  0.1525  0.2057  0.2057  0.2377  0.2926  0.2926
  0.2655

 Free energy of the ion-electron system (eV)
  ---------------------------------------------------
  alpha Z        PSCENC =      2397.92104513
  Ewald energy   TEWEN  =    136380.32841298
  -Hartree energ DENC   =   -219305.89774349
  -exchange      EXHF   =         0.00000000
  -V(xc)+E(xc)   XCENC  =      3571.34580950
  PAW double counting   =     86694.13537058   -85890.73643439
  entropy T*S    EENTRO =        -0.04478426
  eigenvalues    EBANDS =    -12813.81978464
  atomic energy  EATOM  =     87776.77885653
  Solvation  Ediel_sol  =         0.00000000
  ---------------------------------------------------
  free energy    TOTEN  =     -1189.98925205 eV

  energy without entropy =    -1189.94446779  energy(sigma->0) =    -1189.96685992


--------------------------------------------------------------------------------------------------------




--------------------------------------- Iteration      1(  57)  ---------------------------------------


    POTLOK:  cpu time      0.0640: real time      0.0640
    SETDIJ:  cpu time      0.9769: real time      0.9775
    EDDIAG:  cpu time      0.7199: real time      0.7203
  RMM-DIIS:  cpu time      3.0735: real time      3.0750
    ORTHCH:  cpu time      0.1352: real time      0.1352
       DOS:  cpu time      0.0009: real time      0.0009
    CHARGE:  cpu time      0.2672: real time      0.2672
    MIXING:  cpu time      0.0071: real time      0.0071
    --------------------------------------------
      LOOP:  cpu time      5.2447: real time      5.2473

 eigenvalue-minimisations  :  5104
 total energy-change (2. order) :-0.1252222E+00  (-0.1822349E-01)
 number of electron    1168.0000015 magnetization      34.2398943
 augmentation part       25.1030280 magnetization      10.7595785

 Broyden mixing:
  rms(total) = 0.97249E+00    rms(broyden)= 0.97240E+00
  rms(prec ) = 0.10772E+01
  weight for this iteration     100.00

 eigenvalues of (default mixing * dielectric matrix)
  average eigenvalue GAMMA=   0.5447
  2.3306  1.3053  1.3053  0.8156  0.8156  0.7659  0.7659  0.3771  0.8555  0.8555
  0.8170  0.8170  0.7214  0.7214  0.6059  0.6059  0.4696  0.4696  0.4798  0.4798
  0.5468  0.4742  0.4742  0.3870  0.3870  0.0434  0.4312  0.4312  0.0872  0.1061
  0.1061  0.1601  0.3301  0.3301  0.3361  0.3361  0.2104  0.2185  0.3043  0.2648
  0.2648  0.2688

 Free energy of the ion-electron system (eV)
  ---------------------------------------------------
  alpha Z        PSCENC =      2397.92104513
  Ewald energy   TEWEN  =    136380.32841298
  -Hartree energ DENC   =   -219301.90740547
  -exchange      EXHF   =         0.00000000
  -V(xc)+E(xc)   XCENC  =      3571.15926799
  PAW double counting   =     86692.46678267   -85888.91982286
  entropy T*S    EENTRO =        -0.04321496
  eigenvalues    EBANDS =    -12817.89839625
  atomic energy  EATOM  =     87776.77885653
  Solvation  Ediel_sol  =         0.00000000
  ---------------------------------------------------
  free energy    TOTEN  =     -1190.11447423 eV

  energy without entropy =    -1190.07125927  energy(sigma->0) =    -1190.09286675


--------------------------------------------------------------------------------------------------------




--------------------------------------- Iteration      1(  58)  ---------------------------------------


    POTLOK:  cpu time      0.0599: real time      0.0604
    SETDIJ:  cpu time      0.9659: real time      0.9660
    EDDIAG:  cpu time      0.7052: real time      0.7057
  RMM-DIIS:  cpu time      3.2284: real time      3.2301
    ORTHCH:  cpu time      0.1349: real time      0.1355
       DOS:  cpu time      0.0007: real time      0.0007
    CHARGE:  cpu time      0.2691: real time      0.2691
    MIXING:  cpu time      0.0071: real time      0.0071
    --------------------------------------------
      LOOP:  cpu time      5.3713: real time      5.3746

 eigenvalue-minimisations  :  5299
 total energy-change (2. order) :-0.1147587E+00  (-0.5722464E-01)
 number of electron    1168.0000015 magnetization      34.0137747
 augmentation part       25.1453467 magnetization      10.5442092

 Broyden mixing:
  rms(total) = 0.75626E+00    rms(broyden)= 0.75597E+00
  rms(prec ) = 0.82864E+00
  weight for this iteration     100.00

 eigenvalues of (default mixing * dielectric matrix)
  average eigenvalue GAMMA=   0.5504
  2.3815  1.4003  1.4003  0.7721  0.7721  0.7683  0.7683  0.3776  0.8803  0.8803
  0.8067  0.8067  0.7542  0.7542  0.6140  0.6140  0.4865  0.4865  0.6210  0.4830
  0.4830  0.4582  0.4582  0.3911  0.3911  0.4392  0.4392  0.0433  0.0894  0.1052
  0.1052  0.3782  0.3302  0.3302  0.3458  0.3458  0.1624  0.1959  0.2699  0.2699
  0.2329  0.2706  0.3048

 Free energy of the ion-electron system (eV)
  ---------------------------------------------------
  alpha Z        PSCENC =      2397.92104513
  Ewald energy   TEWEN  =    136380.32841298
  -Hartree energ DENC   =   -219286.95941237
  -exchange      EXHF   =         0.00000000
  -V(xc)+E(xc)   XCENC  =      3570.56934521
  PAW double counting   =     86688.77956791   -85885.36042136
  entropy T*S    EENTRO =        -0.04338896
  eigenvalues    EBANDS =    -12832.24323806
  atomic energy  EATOM  =     87776.77885653
  Solvation  Ediel_sol  =         0.00000000
  ---------------------------------------------------
  free energy    TOTEN  =     -1190.22923297 eV

  energy without entropy =    -1190.18584401  energy(sigma->0) =    -1190.20753849


--------------------------------------------------------------------------------------------------------




--------------------------------------- Iteration      1(  59)  ---------------------------------------


    POTLOK:  cpu time      0.0587: real time      0.0587
    SETDIJ:  cpu time      0.9637: real time      0.9639
    EDDIAG:  cpu time      0.7198: real time      0.7202
  RMM-DIIS:  cpu time      3.1829: real time      3.1843
    ORTHCH:  cpu time      0.1352: real time      0.1352
       DOS:  cpu time      0.0007: real time      0.0007
    CHARGE:  cpu time      0.2664: real time      0.2664
    MIXING:  cpu time      0.0075: real time      0.0075
    --------------------------------------------
      LOOP:  cpu time      5.3349: real time      5.3371

 eigenvalue-minimisations  :  5293
 total energy-change (2. order) :-0.7710376E+00  (-0.4835489E-01)
 number of electron    1168.0000015 magnetization      34.2480206
 augmentation part       25.2196738 magnetization       9.2292293

 Broyden mixing:
  rms(total) = 0.63672E+00    rms(broyden)= 0.63522E+00
  rms(prec ) = 0.65610E+00
  weight for this iteration     100.00

 eigenvalues of (default mixing * dielectric matrix)
  average eigenvalue GAMMA=   0.5421
  2.3445  1.4051  1.4051  0.7687  0.7687  0.7689  0.7689  0.3767  0.8367  0.8367
  0.8320  0.8320  0.6154  0.6154  0.7216  0.7216  0.4826  0.4826  0.4740  0.4740
  0.0433  0.4621  0.4621  0.3926  0.3926  0.4836  0.4357  0.4357  0.4492  0.4492
  0.0891  0.1053  0.1053  0.1641  0.1959  0.3378  0.3378  0.3145  0.3145  0.2323
  0.2740  0.2740  0.3003  0.2723

 Free energy of the ion-electron system (eV)
  ---------------------------------------------------
  alpha Z        PSCENC =      2397.92104513
  Ewald energy   TEWEN  =    136380.32841298
  -Hartree energ DENC   =   -219280.30526061
  -exchange      EXHF   =         0.00000000
  -V(xc)+E(xc)   XCENC  =      3569.84106658
  PAW double counting   =     86678.18530428   -85875.07855954
  entropy T*S    EENTRO =        -0.00643961
  eigenvalues    EBANDS =    -12838.66469632
  atomic energy  EATOM  =     87776.77885653
  Solvation  Ediel_sol  =         0.00000000
  ---------------------------------------------------
  free energy    TOTEN  =     -1191.00027058 eV

  energy without entropy =    -1190.99383097  energy(sigma->0) =    -1190.99705077


--------------------------------------------------------------------------------------------------------




--------------------------------------- Iteration      1(  60)  ---------------------------------------


    POTLOK:  cpu time      0.0583: real time      0.0583
    SETDIJ:  cpu time      0.9741: real time      0.9747
    EDDIAG:  cpu time      0.7205: real time      0.7209
  RMM-DIIS:  cpu time      2.9949: real time      2.9971
    ORTHCH:  cpu time      0.1370: real time      0.1370
       DOS:  cpu time      0.0009: real time      0.0009
    CHARGE:  cpu time      0.2670: real time      0.2670
    MIXING:  cpu time      0.0080: real time      0.0080
    --------------------------------------------
      LOOP:  cpu time      5.1607: real time      5.1638

 eigenvalue-minimisations  :  4978
 total energy-change (2. order) :-0.2332203E+00  (-0.2343609E-01)
 number of electron    1168.0000015 magnetization      34.5095796
 augmentation part       25.1769094 magnetization       9.5018325

 Broyden mixing:
  rms(total) = 0.56586E+00    rms(broyden)= 0.56566E+00
  rms(prec ) = 0.59101E+00
  weight for this iteration     100.00

 eigenvalues of (default mixing * dielectric matrix)
  average eigenvalue GAMMA=   0.5541
  2.3823  1.3256  1.3256  0.6745  0.6745  0.7526  0.7526  0.3736  0.8508  0.8508
  0.6846  0.6846  0.6107  0.6107  0.7106  0.7106  0.4368  0.4368  0.5677  0.5677
  0.4732  0.4732  0.0402  0.4663  0.4663  0.3146  0.3146  0.3896  0.3896  0.1082
  0.1422  0.1962  0.2537  0.2537  0.3418  0.3418  0.2916  0.2916  0.3158  0.3158

 Free energy of the ion-electron system (eV)
  ---------------------------------------------------
  alpha Z        PSCENC =      2397.92104513
  Ewald energy   TEWEN  =    136380.32841298
  -Hartree energ DENC   =   -219282.87851708
  -exchange      EXHF   =         0.00000000
  -V(xc)+E(xc)   XCENC  =      3569.73734580
  PAW double counting   =     86680.60002060   -85877.61377162
  entropy T*S    EENTRO =        -0.00263383
  eigenvalues    EBANDS =    -12836.10424938
  atomic energy  EATOM  =     87776.77885653
  Solvation  Ediel_sol  =         0.00000000
  ---------------------------------------------------
  free energy    TOTEN  =     -1191.23349087 eV

  energy without entropy =    -1191.23085703  energy(sigma->0) =    -1191.23217395


--------------------------------------------------------------------------------------------------------




--------------------------------------- Iteration      1(  61)  ---------------------------------------


    POTLOK:  cpu time      0.0587: real time      0.0587
    SETDIJ:  cpu time      0.9719: real time      0.9723
    EDDIAG:  cpu time      0.7192: real time      0.7204
  RMM-DIIS:  cpu time      3.1781: real time      3.1796
    ORTHCH:  cpu time      0.1351: real time      0.1351
       DOS:  cpu time      0.0009: real time      0.0009
    CHARGE:  cpu time      0.2659: real time      0.2668
    MIXING:  cpu time      0.0064: real time      0.0064
    --------------------------------------------
      LOOP:  cpu time      5.3361: real time      5.3402

 eigenvalue-minimisations  :  5271
 total energy-change (2. order) :-0.5139207E+00  (-0.6872825E-01)
 number of electron    1168.0000015 magnetization      34.3419994
 augmentation part       25.1722474 magnetization       9.3369748

 Broyden mixing:
  rms(total) = 0.53132E+00    rms(broyden)= 0.53113E+00
  rms(prec ) = 0.56503E+00
  weight for this iteration     100.00

 eigenvalues of (default mixing * dielectric matrix)
  average eigenvalue GAMMA=   0.5516
  2.3815  1.3187  1.3187  0.6583  0.6583  0.3757  0.7535  0.7535  0.6992  0.6992
  0.8353  0.8353  0.5987  0.5987  0.7283  0.7283  0.4886  0.4886  0.5520  0.5520
  0.4834  0.4834  0.0408  0.4854  0.4854  0.1055  0.3220  0.3220  0.1510  0.1878
  0.3555  0.3555  0.2418  0.2418  0.3798  0.3380  0.3380  0.3261  0.3261  0.3124
  0.3124

 Free energy of the ion-electron system (eV)
  ---------------------------------------------------
  alpha Z        PSCENC =      2397.92104513
  Ewald energy   TEWEN  =    136380.32841298
  -Hartree energ DENC   =   -219281.90120725
  -exchange      EXHF   =         0.00000000
  -V(xc)+E(xc)   XCENC  =      3569.49527381
  PAW double counting   =     86677.25370554   -85874.61000221
  entropy T*S    EENTRO =        -0.00200950
  eigenvalues    EBANDS =    -12837.01148662
  atomic energy  EATOM  =     87776.77885653
  Solvation  Ediel_sol  =         0.00000000
  ---------------------------------------------------
  free energy    TOTEN  =     -1191.74741159 eV

  energy without entropy =    -1191.74540208  energy(sigma->0) =    -1191.74640683


--------------------------------------------------------------------------------------------------------




--------------------------------------- Iteration      1(  62)  ---------------------------------------


    POTLOK:  cpu time      0.0578: real time      0.0578
    SETDIJ:  cpu time      0.9719: real time      0.9721
    EDDIAG:  cpu time      0.7048: real time      0.7050
  RMM-DIIS:  cpu time      2.9965: real time      2.9982
    ORTHCH:  cpu time      0.1333: real time      0.1335
       DOS:  cpu time      0.0008: real time      0.0008
    CHARGE:  cpu time      0.2641: real time      0.2641
    MIXING:  cpu time      0.0077: real time      0.0077
    --------------------------------------------
      LOOP:  cpu time      5.1369: real time      5.1393

 eigenvalue-minimisations  :  4958
 total energy-change (2. order) :-0.1961150E+00  (-0.1344656E-01)
 number of electron    1168.0000015 magnetization      34.0342041
 augmentation part       25.1724966 magnetization       9.0476787

 Broyden mixing:
  rms(total) = 0.47848E+00    rms(broyden)= 0.47846E+00
  rms(prec ) = 0.50973E+00
  weight for this iteration     100.00

 eigenvalues of (default mixing * dielectric matrix)
  average eigenvalue GAMMA=   0.5673
  2.4134  1.3042  1.3042  0.6677  0.6677  0.3785  0.8290  0.8290  0.7076  0.7076
  0.9409  0.9409  0.6282  0.6282  0.7990  0.7990  0.4644  0.4644  0.5704  0.5704
  0.4753  0.4753  0.0404  0.5196  0.5196  0.4773  0.4773  0.1067  0.3143  0.3143
  0.3760  0.3760  0.1515  0.1814  0.2562  0.2562  0.3418  0.3418  0.3298  0.2851
  0.2894  0.3073

 Free energy of the ion-electron system (eV)
  ---------------------------------------------------
  alpha Z        PSCENC =      2397.92104513
  Ewald energy   TEWEN  =    136380.32841298
  -Hartree energ DENC   =   -219282.98686073
  -exchange      EXHF   =         0.00000000
  -V(xc)+E(xc)   XCENC  =      3569.30202475
  PAW double counting   =     86673.53587562   -85870.99842574
  entropy T*S    EENTRO =        -0.00122173
  eigenvalues    EBANDS =    -12835.82323339
  atomic energy  EATOM  =     87776.77885653
  Solvation  Ediel_sol  =         0.00000000
  ---------------------------------------------------
  free energy    TOTEN  =     -1191.94352657 eV

  energy without entropy =    -1191.94230484  energy(sigma->0) =    -1191.94291571


--------------------------------------------------------------------------------------------------------




--------------------------------------- Iteration      1(  63)  ---------------------------------------


    POTLOK:  cpu time      0.0586: real time      0.0586
    SETDIJ:  cpu time      0.9734: real time      0.9736
    EDDIAG:  cpu time      0.7026: real time      0.7029
  RMM-DIIS:  cpu time      3.0351: real time      3.0369
    ORTHCH:  cpu time      0.1337: real time      0.1337
       DOS:  cpu time      0.0008: real time      0.0008
    CHARGE:  cpu time      0.2648: real time      0.2649
    MIXING:  cpu time      0.0070: real time      0.0070
    --------------------------------------------
      LOOP:  cpu time      5.1760: real time      5.1783

 eigenvalue-minimisations  :  5023
 total energy-change (2. order) :-0.4216875E+00  (-0.1712888E-01)
 number of electron    1168.0000015 magnetization      33.7054109
 augmentation part       25.1730453 magnetization       8.7335292

 Broyden mixing:
  rms(total) = 0.49415E+00    rms(broyden)= 0.49413E+00
  rms(prec ) = 0.51906E+00
  weight for this iteration     100.00

 eigenvalues of (default mixing * dielectric matrix)
  average eigenvalue GAMMA=   0.5708
  2.4374  1.2728  1.2728  0.6842  0.6842  0.3869  0.8541  0.8541  0.9768  0.9768
  0.7017  0.7017  0.8472  0.6217  0.6217  0.7012  0.7012  0.4628  0.4628  0.5740
  0.5740  0.4774  0.4774  0.5438  0.0404  0.4766  0.4766  0.3154  0.3154  0.1067
  0.4676  0.3660  0.3660  0.1514  0.1813  0.2522  0.2522  0.3424  0.3424  0.3295
  0.2936  0.2936  0.3077

 Free energy of the ion-electron system (eV)
  ---------------------------------------------------
  alpha Z        PSCENC =      2397.92104513
  Ewald energy   TEWEN  =    136380.32841298
  -Hartree energ DENC   =   -219275.37343914
  -exchange      EXHF   =         0.00000000
  -V(xc)+E(xc)   XCENC  =      3568.76359841
  PAW double counting   =     86664.08232134   -85861.91868818
  entropy T*S    EENTRO =        -0.00143159
  eigenvalues    EBANDS =    -12842.94588960
  atomic energy  EATOM  =     87776.77885653
  Solvation  Ediel_sol  =         0.00000000
  ---------------------------------------------------
  free energy    TOTEN  =     -1192.36521412 eV

  energy without entropy =    -1192.36378253  energy(sigma->0) =    -1192.36449832


--------------------------------------------------------------------------------------------------------




--------------------------------------- Iteration      1(  64)  ---------------------------------------


    POTLOK:  cpu time      0.0585: real time      0.0584
    SETDIJ:  cpu time      0.9720: real time      0.9725
    EDDIAG:  cpu time      0.7050: real time      0.7055
  RMM-DIIS:  cpu time      3.0317: real time      3.0338
    ORTHCH:  cpu time      0.1336: real time      0.1336
       DOS:  cpu time      0.0006: real time      0.0006
    CHARGE:  cpu time      0.2661: real time      0.2662
    MIXING:  cpu time      0.0073: real time      0.0073
    --------------------------------------------
      LOOP:  cpu time      5.1748: real time      5.1779

 eigenvalue-minimisations  :  5032
 total energy-change (2. order) :-0.2611874E+00  (-0.1624701E-01)
 number of electron    1168.0000015 magnetization      33.5615730
 augmentation part       25.1618781 magnetization       8.6027935

 Broyden mixing:
  rms(total) = 0.52848E+00    rms(broyden)= 0.52845E+00
  rms(prec ) = 0.54768E+00
  weight for this iteration     100.00

 eigenvalues of (default mixing * dielectric matrix)
  average eigenvalue GAMMA=   0.5752
  2.4386  1.2580  1.2580  1.1301  1.1301  0.7092  0.7092  0.3876  0.8617  0.8617
  0.6858  0.6858  0.8630  0.6112  0.6112  0.6960  0.6960  0.4637  0.4637  0.5689
  0.5689  0.4774  0.4774  0.0404  0.5461  0.5461  0.4761  0.4761  0.1068  0.3172
  0.3172  0.3744  0.3744  0.1516  0.1850  0.2563  0.2563  0.3798  0.3418  0.3418
  0.3302  0.2786  0.3007  0.3007

 Free energy of the ion-electron system (eV)
  ---------------------------------------------------
  alpha Z        PSCENC =      2397.92104513
  Ewald energy   TEWEN  =    136380.32841298
  -Hartree energ DENC   =   -219270.12732676
  -exchange      EXHF   =         0.00000000
  -V(xc)+E(xc)   XCENC  =      3568.39990062
  PAW double counting   =     86655.44978677   -85853.59554910
  entropy T*S    EENTRO =        -0.00585806
  eigenvalues    EBANDS =    -12847.77566959
  atomic energy  EATOM  =     87776.77885653
  Solvation  Ediel_sol  =         0.00000000
  ---------------------------------------------------
  free energy    TOTEN  =     -1192.62640148 eV

  energy without entropy =    -1192.62054342  energy(sigma->0) =    -1192.62347245


--------------------------------------------------------------------------------------------------------




--------------------------------------- Iteration      1(  65)  ---------------------------------------


    POTLOK:  cpu time      0.0585: real time      0.0585
    SETDIJ:  cpu time      0.9722: real time      0.9725
    EDDIAG:  cpu time      0.7217: real time      0.7222
  RMM-DIIS:  cpu time      2.8769: real time      2.8784
    ORTHCH:  cpu time      0.1332: real time      0.1333
       DOS:  cpu time      0.0007: real time      0.0007
    CHARGE:  cpu time      0.2651: real time      0.2652
    MIXING:  cpu time      0.0079: real time      0.0079
    --------------------------------------------
      LOOP:  cpu time      5.0364: real time      5.0386

 eigenvalue-minimisations  :  4823
 total energy-change (2. order) :-0.1465449E+00  (-0.6949978E-02)
 number of electron    1168.0000015 magnetization      33.5763509
 augmentation part       25.1864901 magnetization       8.5925702

 Broyden mixing:
  rms(total) = 0.89122E+00    rms(broyden)= 0.88985E+00
  rms(prec ) = 0.98471E+00
  weight for this iteration     100.00

 eigenvalues of (default mixing * dielectric matrix)
  average eigenvalue GAMMA=   0.5515
  2.1789  1.1894  1.1894  1.0149  0.3811  0.6262  0.6262  0.7510  0.7510  0.8849
  0.8849  0.7844  0.7844  0.5067  0.5067  0.6458  0.6458  0.6025  0.4627  0.4627
  0.5148  0.5148  0.4260  0.4260  0.0439  0.2709  0.2709  0.4260  0.4260  0.1187
  0.1187  0.1527  0.1912  0.3509  0.3509  0.3495  0.3495  0.2775  0.3026  0.3003

 Free energy of the ion-electron system (eV)
  ---------------------------------------------------
  alpha Z        PSCENC =      2397.92104513
  Ewald energy   TEWEN  =    136380.32841298
  -Hartree energ DENC   =   -219265.04221477
  -exchange      EXHF   =         0.00000000
  -V(xc)+E(xc)   XCENC  =      3568.27692502
  PAW double counting   =     86652.51674579   -85850.82051510
  entropy T*S    EENTRO =        -0.03026790
  eigenvalues    EBANDS =    -12852.70193406
  atomic energy  EATOM  =     87776.77885653
  Solvation  Ediel_sol  =         0.00000000
  ---------------------------------------------------
  free energy    TOTEN  =     -1192.77294638 eV

  energy without entropy =    -1192.74267848  energy(sigma->0) =    -1192.75781243


--------------------------------------------------------------------------------------------------------




--------------------------------------- Iteration      1(  66)  ---------------------------------------


    POTLOK:  cpu time      0.0601: real time      0.0601
    SETDIJ:  cpu time      0.9732: real time      0.9737
    EDDIAG:  cpu time      0.7224: real time      0.7227
  RMM-DIIS:  cpu time      2.4658: real time      2.4673
    ORTHCH:  cpu time      0.1345: real time      0.1350
       DOS:  cpu time      0.0007: real time      0.0007
    CHARGE:  cpu time      0.2645: real time      0.2645
    MIXING:  cpu time      0.0077: real time      0.0077
    --------------------------------------------
      LOOP:  cpu time      4.6289: real time      4.6318

 eigenvalue-minimisations  :  4107
 total energy-change (2. order) : 0.4582020E-01  (-0.2161204E-02)
 number of electron    1168.0000015 magnetization      33.5731108
 augmentation part       25.1829505 magnetization       8.5906783

 Broyden mixing:
  rms(total) = 0.85752E+00    rms(broyden)= 0.85746E+00
  rms(prec ) = 0.94835E+00
  weight for this iteration     100.00

 eigenvalues of (default mixing * dielectric matrix)
  average eigenvalue GAMMA=   0.5430
  2.1347  1.2004  1.2004  1.1077  0.3808  0.6061  0.6061  0.7149  0.7149  0.8078
  0.8078  0.8536  0.8536  0.5090  0.5090  0.6440  0.6440  0.5383  0.5383  0.4672
  0.4672  0.4352  0.4352  0.0313  0.2596  0.2596  0.1245  0.1245  0.1760  0.1760
  0.4613  0.4613  0.4468  0.3579  0.3579  0.3821  0.2336  0.3487  0.2785  0.3038
  0.3038

 Free energy of the ion-electron system (eV)
  ---------------------------------------------------
  alpha Z        PSCENC =      2397.92104513
  Ewald energy   TEWEN  =    136380.32841298
  -Hartree energ DENC   =   -219266.74808315
  -exchange      EXHF   =         0.00000000
  -V(xc)+E(xc)   XCENC  =      3568.29994537
  PAW double counting   =     86654.22241751   -85852.46127689
  entropy T*S    EENTRO =        -0.03175876
  eigenvalues    EBANDS =    -12851.03668491
  atomic energy  EATOM  =     87776.77885653
  Solvation  Ediel_sol  =         0.00000000
  ---------------------------------------------------
  free energy    TOTEN  =     -1192.72712618 eV

  energy without entropy =    -1192.69536742  energy(sigma->0) =    -1192.71124680


--------------------------------------------------------------------------------------------------------




--------------------------------------- Iteration      1(  67)  ---------------------------------------


    POTLOK:  cpu time      0.0573: real time      0.0573
    SETDIJ:  cpu time      0.9616: real time      0.9620
    EDDIAG:  cpu time      0.7222: real time      0.7224
  RMM-DIIS:  cpu time      1.9988: real time      2.0001
    ORTHCH:  cpu time      0.1362: real time      0.1362
       DOS:  cpu time      0.0010: real time      0.0010
    CHARGE:  cpu time      0.2705: real time      0.2705
    MIXING:  cpu time      0.0071: real time      0.0071
    --------------------------------------------
      LOOP:  cpu time      4.1546: real time      4.1566

 eigenvalue-minimisations  :  3289
 total energy-change (2. order) : 0.1108543E-01  (-0.2577861E-03)
 number of electron    1168.0000015 magnetization      33.6125888
 augmentation part       25.1813812 magnetization       8.6314258

 Broyden mixing:
  rms(total) = 0.86066E+00    rms(broyden)= 0.86066E+00
  rms(prec ) = 0.95198E+00
  weight for this iteration     100.00

 eigenvalues of (default mixing * dielectric matrix)
  average eigenvalue GAMMA=   0.5459
  2.1213  1.1763  1.1763  1.2074  0.3684  0.6124  0.6124  0.7395  0.7395  0.7999
  0.7999  0.8934  0.8934  0.1859  0.5266  0.5266  0.5951  0.5951  0.5700  0.5700
  0.4706  0.4706  0.3329  0.3329  0.0466  0.4706  0.4706  0.4639  0.4639  0.1140
  0.1351  0.3255  0.3255  0.3843  0.3843  0.2364  0.2364  0.3186  0.3186  0.3428
  0.2881  0.2881

 Free energy of the ion-electron system (eV)
  ---------------------------------------------------
  alpha Z        PSCENC =      2397.92104513
  Ewald energy   TEWEN  =    136380.32841298
  -Hartree energ DENC   =   -219266.58542008
  -exchange      EXHF   =         0.00000000
  -V(xc)+E(xc)   XCENC  =      3568.30275766
  PAW double counting   =     86654.58244027   -85852.82078799
  entropy T*S    EENTRO =        -0.03100748
  eigenvalues    EBANDS =    -12851.19233778
  atomic energy  EATOM  =     87776.77885653
  Solvation  Ediel_sol  =         0.00000000
  ---------------------------------------------------
  free energy    TOTEN  =     -1192.71604075 eV

  energy without entropy =    -1192.68503327  energy(sigma->0) =    -1192.70053701


--------------------------------------------------------------------------------------------------------




--------------------------------------- Iteration      1(  68)  ---------------------------------------


    POTLOK:  cpu time      0.0593: real time      0.0593
    SETDIJ:  cpu time      0.9718: real time      0.9724
    EDDIAG:  cpu time      0.7214: real time      0.7216
  RMM-DIIS:  cpu time      2.3687: real time      2.3696
    ORTHCH:  cpu time      0.1388: real time      0.1388
       DOS:  cpu time      0.0009: real time      0.0009
    CHARGE:  cpu time      0.2657: real time      0.2667
    MIXING:  cpu time      0.0070: real time      0.0070
    --------------------------------------------
      LOOP:  cpu time      4.5336: real time      4.5364

 eigenvalue-minimisations  :  3944
 total energy-change (2. order) :-0.4521579E-01  (-0.7651879E-03)
 number of electron    1168.0000015 magnetization      33.6050203
 augmentation part       25.1842542 magnetization       8.6214972

 Broyden mixing:
  rms(total) = 0.91744E+00    rms(broyden)= 0.91743E+00
  rms(prec ) = 0.10135E+01
  weight for this iteration     100.00

 eigenvalues of (default mixing * dielectric matrix)
  average eigenvalue GAMMA=   0.5396
  2.1217  1.1857  1.1857  1.2260  0.8549  0.8549  0.3762  0.6247  0.6247  0.8968
  0.8968  0.6955  0.6955  0.5241  0.5241  0.0800  0.6029  0.6029  0.4745  0.4745
  0.5494  0.5494  0.3484  0.3484  0.4862  0.4862  0.0759  0.0759  0.2969  0.2969
  0.4650  0.4650  0.1547  0.1547  0.3914  0.3914  0.3454  0.3454  0.2213  0.3451
  0.3047  0.3047  0.2801

 Free energy of the ion-electron system (eV)
  ---------------------------------------------------
  alpha Z        PSCENC =      2397.92104513
  Ewald energy   TEWEN  =    136380.32841298
  -Hartree energ DENC   =   -219266.41616703
  -exchange      EXHF   =         0.00000000
  -V(xc)+E(xc)   XCENC  =      3568.31356109
  PAW double counting   =     86651.13654738   -85849.50310280
  entropy T*S    EENTRO =        -0.02689140
  eigenvalues    EBANDS =    -12851.29351842
  atomic energy  EATOM  =     87776.77885653
  Solvation  Ediel_sol  =         0.00000000
  ---------------------------------------------------
  free energy    TOTEN  =     -1192.76125654 eV

  energy without entropy =    -1192.73436514  energy(sigma->0) =    -1192.74781084


--------------------------------------------------------------------------------------------------------




--------------------------------------- Iteration      1(  69)  ---------------------------------------


    POTLOK:  cpu time      0.0588: real time      0.0588
    SETDIJ:  cpu time      0.9629: real time      0.9631
    EDDIAG:  cpu time      0.7210: real time      0.7212
  RMM-DIIS:  cpu time      1.6815: real time      1.6821
    ORTHCH:  cpu time      0.1327: real time      0.1327
       DOS:  cpu time      0.0006: real time      0.0006
    CHARGE:  cpu time      0.2667: real time      0.2667
    MIXING:  cpu time      0.0070: real time      0.0070
    --------------------------------------------
      LOOP:  cpu time      3.8312: real time      3.8323

 eigenvalue-minimisations  :  2760
 total energy-change (2. order) : 0.6519785E-02  (-0.8143317E-04)
 number of electron    1168.0000015 magnetization      33.5509147
 augmentation part       25.1840577 magnetization       8.5675377

 Broyden mixing:
  rms(total) = 0.91445E+00    rms(broyden)= 0.91445E+00
  rms(prec ) = 0.10105E+01
  weight for this iteration     100.00

 eigenvalues of (default mixing * dielectric matrix)
  average eigenvalue GAMMA=   0.5550
  2.1051  1.1505  1.1505  1.2414  0.8094  0.8094  0.8695  0.8695  0.3851  0.5819
  0.5819  0.8964  0.8964  0.6045  0.6045  0.4660  0.4660  0.6299  0.6299  0.4588
  0.4588  0.5423  0.5423  0.3440  0.3440  0.0417  0.4923  0.4923  0.3335  0.3335
  0.4886  0.4446  0.4446  0.1170  0.1308  0.1895  0.1895  0.3397  0.3397  0.2838
  0.3102  0.3102  0.3505  0.3505

 Free energy of the ion-electron system (eV)
  ---------------------------------------------------
  alpha Z        PSCENC =      2397.92104513
  Ewald energy   TEWEN  =    136380.32841298
  -Hartree energ DENC   =   -219266.24420380
  -exchange      EXHF   =         0.00000000
  -V(xc)+E(xc)   XCENC  =      3568.31130444
  PAW double counting   =     86651.37039908   -85849.72974146
  entropy T*S    EENTRO =        -0.02706618
  eigenvalues    EBANDS =    -12851.46374348
  atomic energy  EATOM  =     87776.77885653
  Solvation  Ediel_sol  =         0.00000000
  ---------------------------------------------------
  free energy    TOTEN  =     -1192.75473675 eV

  energy without entropy =    -1192.72767057  energy(sigma->0) =    -1192.74120366


--------------------------------------------------------------------------------------------------------




--------------------------------------- Iteration      1(  70)  ---------------------------------------


    POTLOK:  cpu time      0.0576: real time      0.0576
    SETDIJ:  cpu time      0.9627: real time      0.9634
    EDDIAG:  cpu time      0.7232: real time      0.7235
  RMM-DIIS:  cpu time      2.8012: real time      2.8027
    ORTHCH:  cpu time      0.1334: real time      0.1334
       DOS:  cpu time      0.0006: real time      0.0006
    CHARGE:  cpu time      0.2652: real time      0.2652
    MIXING:  cpu time      0.0080: real time      0.0081
    --------------------------------------------
      LOOP:  cpu time      4.9520: real time      4.9546

 eigenvalue-minimisations  :  4528
 total energy-change (2. order) : 0.2634857E-01  (-0.1125800E-02)
 number of electron    1168.0000015 magnetization      33.3322483
 augmentation part       25.1865680 magnetization       8.3350163

 Broyden mixing:
  rms(total) = 0.83956E+00    rms(broyden)= 0.83954E+00
  rms(prec ) = 0.93069E+00
  weight for this iteration     100.00

 eigenvalues of (default mixing * dielectric matrix)
  average eigenvalue GAMMA=   0.5579
  1.9132  1.2087  1.2087  1.1948  1.1948  0.8358  0.8358  0.6365  0.6365  0.2886
  0.7665  0.7665  0.6057  0.6057  0.6930  0.6930  0.5772  0.5772  0.3849  0.3849
  0.0290  0.4741  0.4741  0.2550  0.2550  0.1166  0.1166  0.4819  0.4819  0.1865
  0.4034  0.4034  0.3189  0.3189  0.3892  0.3892  0.3556  0.2533  0.3230  0.2820

 Free energy of the ion-electron system (eV)
  ---------------------------------------------------
  alpha Z        PSCENC =      2397.92104513
  Ewald energy   TEWEN  =    136380.32841298
  -Hartree energ DENC   =   -219263.74815841
  -exchange      EXHF   =         0.00000000
  -V(xc)+E(xc)   XCENC  =      3568.24118141
  PAW double counting   =     86652.60733863   -85850.93831588
  entropy T*S    EENTRO =        -0.03441984
  eigenvalues    EBANDS =    -12853.88432874
  atomic energy  EATOM  =     87776.77885653
  Solvation  Ediel_sol  =         0.00000000
  ---------------------------------------------------
  free energy    TOTEN  =     -1192.72838818 eV

  energy without entropy =    -1192.69396835  energy(sigma->0) =    -1192.71117826


--------------------------------------------------------------------------------------------------------




--------------------------------------- Iteration      1(  71)  ---------------------------------------


    POTLOK:  cpu time      0.0587: real time      0.0587
    SETDIJ:  cpu time      0.9722: real time      0.9728
    EDDIAG:  cpu time      0.7235: real time      0.7238
  RMM-DIIS:  cpu time      3.1535: real time      3.1549
    ORTHCH:  cpu time      0.1318: real time      0.1318
       DOS:  cpu time      0.0009: real time      0.0009
    CHARGE:  cpu time      0.2657: real time      0.2664
    MIXING:  cpu time      0.0065: real time      0.0065
    --------------------------------------------
      LOOP:  cpu time      5.3127: real time      5.3158

 eigenvalue-minimisations  :  5284
 total energy-change (2. order) :-0.1408586E-01  (-0.3189502E-01)
 number of electron    1168.0000015 magnetization      33.2330150
 augmentation part       25.1661150 magnetization       8.2798355

 Broyden mixing:
  rms(total) = 0.57358E+00    rms(broyden)= 0.57138E+00
  rms(prec ) = 0.58952E+00
  weight for this iteration     100.00

 eigenvalues of (default mixing * dielectric matrix)
  average eigenvalue GAMMA=   0.5566
  1.9863  1.2124  1.2124  1.1680  1.1680  0.6261  0.6261  0.8074  0.8074  0.2553
  0.8013  0.8013  0.5755  0.5755  0.6797  0.6797  0.5866  0.5866  0.5215  0.5215
  0.3895  0.3895  0.0292  0.4450  0.4450  0.4781  0.4781  0.2613  0.2613  0.1192
  0.1192  0.4226  0.4226  0.2150  0.2150  0.3544  0.3544  0.3098  0.3098  0.3170
  0.2851

 Free energy of the ion-electron system (eV)
  ---------------------------------------------------
  alpha Z        PSCENC =      2397.92104513
  Ewald energy   TEWEN  =    136380.32841298
  -Hartree energ DENC   =   -219251.96793540
  -exchange      EXHF   =         0.00000000
  -V(xc)+E(xc)   XCENC  =      3567.98696495
  PAW double counting   =     86667.11130698   -85865.12023239
  entropy T*S    EENTRO =        -0.00513525
  eigenvalues    EBANDS =    -12865.77575758
  atomic energy  EATOM  =     87776.77885653
  Solvation  Ediel_sol  =         0.00000000
  ---------------------------------------------------
  free energy    TOTEN  =     -1192.74247404 eV

  energy without entropy =    -1192.73733879  energy(sigma->0) =    -1192.73990642


--------------------------------------------------------------------------------------------------------




--------------------------------------- Iteration      1(  72)  ---------------------------------------


    POTLOK:  cpu time      0.0578: real time      0.0578
    SETDIJ:  cpu time      0.9627: real time      0.9629
    EDDIAG:  cpu time      0.7191: real time      0.7191
  RMM-DIIS:  cpu time      3.0862: real time      3.0876
    ORTHCH:  cpu time      0.1339: real time      0.1344
       DOS:  cpu time      0.0007: real time      0.0007
    CHARGE:  cpu time      0.2661: real time      0.2661
    MIXING:  cpu time      0.0067: real time      0.0067
    --------------------------------------------
      LOOP:  cpu time      5.2332: real time      5.2353

 eigenvalue-minimisations  :  5095
 total energy-change (2. order) : 0.6639042E-02  (-0.6238330E-02)
 number of electron    1168.0000015 magnetization      33.2690748
 augmentation part       25.1758400 magnetization       8.3084683

 Broyden mixing:
  rms(total) = 0.52807E+00    rms(broyden)= 0.52804E+00
  rms(prec ) = 0.54365E+00
  weight for this iteration     100.00

 eigenvalues of (default mixing * dielectric matrix)
  average eigenvalue GAMMA=   0.5606
  2.0265  1.2112  1.2112  1.0582  1.0582  0.6218  0.6218  0.8037  0.8037  0.9082
  0.9082  0.2441  0.6114  0.6114  0.6772  0.6772  0.6892  0.6892  0.5815  0.5815
  0.3706  0.3706  0.4590  0.4590  0.0296  0.4700  0.4700  0.2680  0.2680  0.1171
  0.1171  0.4108  0.4108  0.2017  0.2902  0.2902  0.4055  0.2444  0.3418  0.3418
  0.3293  0.2847

 Free energy of the ion-electron system (eV)
  ---------------------------------------------------
  alpha Z        PSCENC =      2397.92104513
  Ewald energy   TEWEN  =    136380.32841298
  -Hartree energ DENC   =   -219249.32012980
  -exchange      EXHF   =         0.00000000
  -V(xc)+E(xc)   XCENC  =      3567.92826178
  PAW double counting   =     86663.75128381   -85861.88827858
  entropy T*S    EENTRO =        -0.02689065
  eigenvalues    EBANDS =    -12868.20839621
  atomic energy  EATOM  =     87776.77885653
  Solvation  Ediel_sol  =         0.00000000
  ---------------------------------------------------
  free energy    TOTEN  =     -1192.73583500 eV

  energy without entropy =    -1192.70894435  energy(sigma->0) =    -1192.72238968


--------------------------------------------------------------------------------------------------------




--------------------------------------- Iteration      1(  73)  ---------------------------------------


    POTLOK:  cpu time      0.0582: real time      0.0582
    SETDIJ:  cpu time      0.9721: real time      0.9723
    EDDIAG:  cpu time      0.7205: real time      0.7209
  RMM-DIIS:  cpu time      3.0165: real time      3.0182
    ORTHCH:  cpu time      0.1318: real time      0.1320
       DOS:  cpu time      0.0008: real time      0.0008
    CHARGE:  cpu time      0.2659: real time      0.2660
    MIXING:  cpu time      0.0069: real time      0.0069
    --------------------------------------------
      LOOP:  cpu time      5.1728: real time      5.1753

 eigenvalue-minimisations  :  4905
 total energy-change (2. order) : 0.1176870E-01  (-0.2309850E-02)
 number of electron    1168.0000015 magnetization      33.2541827
 augmentation part       25.2125776 magnetization       8.2532711

 Broyden mixing:
  rms(total) = 0.68118E+00    rms(broyden)= 0.68029E+00
  rms(prec ) = 0.77296E+00
  weight for this iteration     100.00

 eigenvalues of (default mixing * dielectric matrix)
  average eigenvalue GAMMA=   0.5524
  2.0273  1.2774  1.2774  1.0161  1.0161  0.9478  0.9478  0.7489  0.7489  0.6094
  0.6094  0.2550  0.6513  0.6513  0.6712  0.6712  0.6999  0.6999  0.5846  0.5846
  0.0075  0.3580  0.3580  0.4509  0.4509  0.0748  0.2966  0.2966  0.4760  0.4760
  0.1094  0.1428  0.1907  0.4002  0.4002  0.2281  0.3142  0.3142  0.4022  0.3517
  0.3517  0.3229  0.2833

 Free energy of the ion-electron system (eV)
  ---------------------------------------------------
  alpha Z        PSCENC =      2397.92104513
  Ewald energy   TEWEN  =    136380.32841298
  -Hartree energ DENC   =   -219249.60139697
  -exchange      EXHF   =         0.00000000
  -V(xc)+E(xc)   XCENC  =      3567.98005192
  PAW double counting   =     86662.85381637   -85861.03405125
  entropy T*S    EENTRO =        -0.04947442
  eigenvalues    EBANDS =    -12867.90132659
  atomic energy  EATOM  =     87776.77885653
  Solvation  Ediel_sol  =         0.00000000
  ---------------------------------------------------
  free energy    TOTEN  =     -1192.72406630 eV

  energy without entropy =    -1192.67459188  energy(sigma->0) =    -1192.69932909


--------------------------------------------------------------------------------------------------------




--------------------------------------- Iteration      1(  74)  ---------------------------------------


    POTLOK:  cpu time      0.0579: real time      0.0579
    SETDIJ:  cpu time      0.9719: real time      0.9725
    EDDIAG:  cpu time      0.7213: real time      0.7215
  RMM-DIIS:  cpu time      2.3883: real time      2.3893
    ORTHCH:  cpu time      0.1326: real time      0.1326
       DOS:  cpu time      0.0007: real time      0.0007
    CHARGE:  cpu time      0.2702: real time      0.2712
    MIXING:  cpu time      0.0074: real time      0.0074
    --------------------------------------------
      LOOP:  cpu time      4.5502: real time      4.5532

 eigenvalue-minimisations  :  3883
 total energy-change (2. order) : 0.5390553E-02  (-0.5931870E-03)
 number of electron    1168.0000015 magnetization      33.1753518
 augmentation part       25.2068102 magnetization       8.1894107

 Broyden mixing:
  rms(total) = 0.65807E+00    rms(broyden)= 0.65804E+00
  rms(prec ) = 0.74794E+00
  weight for this iteration     100.00

 eigenvalues of (default mixing * dielectric matrix)
  average eigenvalue GAMMA=   0.5612
  2.0396  1.2494  1.2494  0.9691  0.9691  1.0622  0.7539  0.7539  0.9349  0.9349
  0.5512  0.5512  0.2662  0.7183  0.7183  0.6580  0.6580  0.6585  0.6585  0.4494
  0.4494  0.0165  0.4836  0.4836  0.3736  0.3736  0.5285  0.4610  0.4610  0.1323
  0.1323  0.2238  0.2238  0.1960  0.4198  0.3869  0.3869  0.2331  0.2968  0.2968
  0.3583  0.3583  0.2823  0.3288

 Free energy of the ion-electron system (eV)
  ---------------------------------------------------
  alpha Z        PSCENC =      2397.92104513
  Ewald energy   TEWEN  =    136380.32841298
  -Hartree energ DENC   =   -219249.61985200
  -exchange      EXHF   =         0.00000000
  -V(xc)+E(xc)   XCENC  =      3567.97218538
  PAW double counting   =     86663.14743722   -85861.32222228
  entropy T*S    EENTRO =        -0.04959732
  eigenvalues    EBANDS =    -12867.87494139
  atomic energy  EATOM  =     87776.77885653
  Solvation  Ediel_sol  =         0.00000000
  ---------------------------------------------------
  free energy    TOTEN  =     -1192.71867575 eV

  energy without entropy =    -1192.66907843  energy(sigma->0) =    -1192.69387709


--------------------------------------------------------------------------------------------------------




--------------------------------------- Iteration      1(  75)  ---------------------------------------


    POTLOK:  cpu time      0.0574: real time      0.0574
    SETDIJ:  cpu time      0.9621: real time      0.9624
    EDDIAG:  cpu time      0.7218: real time      0.7218
  RMM-DIIS:  cpu time      2.8240: real time      2.8252
    ORTHCH:  cpu time      0.1324: real time      0.1324
       DOS:  cpu time      0.0008: real time      0.0009
    CHARGE:  cpu time      0.2662: real time      0.2670
    MIXING:  cpu time      0.0080: real time      0.0080
    --------------------------------------------
      LOOP:  cpu time      4.9728: real time      4.9752

 eigenvalue-minimisations  :  4594
 total energy-change (2. order) : 0.4565239E-02  (-0.1029538E-02)
 number of electron    1168.0000015 magnetization      33.3416418
 augmentation part       25.2038517 magnetization       8.3555068

 Broyden mixing:
  rms(total) = 0.68512E+00    rms(broyden)= 0.68505E+00
  rms(prec ) = 0.78031E+00
  weight for this iteration     100.00

 eigenvalues of (default mixing * dielectric matrix)
  average eigenvalue GAMMA=   0.5346
  1.7981  0.9962  0.9962  1.3161  0.8769  0.8769  0.5904  0.5904  0.9033  0.8348
  0.8348  0.6459  0.6459  0.0683  0.4990  0.4990  0.5249  0.5249  0.6032  0.5154
  0.5154  0.4050  0.4050  0.1205  0.1205  0.2537  0.2537  0.1715  0.1715  0.2118
  0.2118  0.5187  0.4739  0.4136  0.4136  0.3049  0.3049  0.2798  0.3575  0.3340

 Free energy of the ion-electron system (eV)
  ---------------------------------------------------
  alpha Z        PSCENC =      2397.92104513
  Ewald energy   TEWEN  =    136380.32841298
  -Hartree energ DENC   =   -219248.39915163
  -exchange      EXHF   =         0.00000000
  -V(xc)+E(xc)   XCENC  =      3567.91845293
  PAW double counting   =     86662.08945827   -85860.26798228
  entropy T*S    EENTRO =        -0.04736019
  eigenvalues    EBANDS =    -12869.03584225
  atomic energy  EATOM  =     87776.77885653
  Solvation  Ediel_sol  =         0.00000000
  ---------------------------------------------------
  free energy    TOTEN  =     -1192.71411051 eV

  energy without entropy =    -1192.66675032  energy(sigma->0) =    -1192.69043042


--------------------------------------------------------------------------------------------------------




--------------------------------------- Iteration      1(  76)  ---------------------------------------


    POTLOK:  cpu time      0.0580: real time      0.0580
    SETDIJ:  cpu time      0.9622: real time      0.9624
    EDDIAG:  cpu time      0.7247: real time      0.7250
  RMM-DIIS:  cpu time      3.2033: real time      3.2058
    ORTHCH:  cpu time      0.1314: real time      0.1315
       DOS:  cpu time      0.0007: real time      0.0007
    CHARGE:  cpu time      0.2678: real time      0.2678
    MIXING:  cpu time      0.0065: real time      0.0065
    --------------------------------------------
      LOOP:  cpu time      5.3546: real time      5.3576

 eigenvalue-minimisations  :  5259
 total energy-change (2. order) : 0.1081219E+00  (-0.5971785E-01)
 number of electron    1168.0000015 magnetization      33.3580979
 augmentation part       25.1266143 magnetization       8.4241561

 Broyden mixing:
  rms(total) = 0.41903E+00    rms(broyden)= 0.41635E+00
  rms(prec ) = 0.42619E+00
  weight for this iteration     100.00

 eigenvalues of (default mixing * dielectric matrix)
  average eigenvalue GAMMA=   0.5317
  1.8742  0.9825  0.9825  1.3069  0.8599  0.8599  0.6084  0.6084  0.8994  0.8190
  0.8190  0.6614  0.6614  0.5140  0.5140  0.0729  0.5210  0.5210  0.6326  0.5409
  0.5069  0.5069  0.4117  0.4117  0.2366  0.2366  0.1178  0.1178  0.2103  0.2103
  0.1793  0.1793  0.4890  0.4282  0.4282  0.2397  0.2927  0.2927  0.3649  0.3391
  0.3391

 Free energy of the ion-electron system (eV)
  ---------------------------------------------------
  alpha Z        PSCENC =      2397.92104513
  Ewald energy   TEWEN  =    136380.32841298
  -Hartree energ DENC   =   -219268.63723574
  -exchange      EXHF   =         0.00000000
  -V(xc)+E(xc)   XCENC  =      3568.32451970
  PAW double counting   =     86673.90553304   -85871.49766998
  entropy T*S    EENTRO =        -0.02957889
  eigenvalues    EBANDS =    -12849.69987137
  atomic energy  EATOM  =     87776.77885653
  Solvation  Ediel_sol  =         0.00000000
  ---------------------------------------------------
  free energy    TOTEN  =     -1192.60598860 eV

  energy without entropy =    -1192.57640971  energy(sigma->0) =    -1192.59119916


--------------------------------------------------------------------------------------------------------




--------------------------------------- Iteration      1(  77)  ---------------------------------------


    POTLOK:  cpu time      0.0593: real time      0.0593
    SETDIJ:  cpu time      0.9643: real time      0.9648
    EDDIAG:  cpu time      0.7245: real time      0.7249
  RMM-DIIS:  cpu time      3.1423: real time      3.1437
    ORTHCH:  cpu time      0.1316: real time      0.1316
       DOS:  cpu time      0.0008: real time      0.0008
    CHARGE:  cpu time      0.2732: real time      0.2732
    MIXING:  cpu time      0.0075: real time      0.0075
    --------------------------------------------
      LOOP:  cpu time      5.3037: real time      5.3061

 eigenvalue-minimisations  :  5148
 total energy-change (2. order) :-0.1783026E+00  (-0.9177523E-02)
 number of electron    1168.0000015 magnetization      33.4155781
 augmentation part       25.1414869 magnetization       8.4827845

 Broyden mixing:
  rms(total) = 0.44169E+00    rms(broyden)= 0.44153E+00
  rms(prec ) = 0.45187E+00
  weight for this iteration     100.00

 eigenvalues of (default mixing * dielectric matrix)
  average eigenvalue GAMMA=   0.5350
  1.9137  0.8840  0.8840  1.3375  0.6698  0.6698  0.8203  0.8203  0.9329  0.8129
  0.8129  0.7225  0.7225  0.0704  0.5166  0.5166  0.5178  0.5178  0.5070  0.5070
  0.5720  0.5720  0.1188  0.1188  0.2219  0.2219  0.2683  0.2683  0.3813  0.3813
  0.5464  0.1691  0.1906  0.5023  0.4309  0.4309  0.2807  0.2807  0.2990  0.3688
  0.3451  0.3451

 Free energy of the ion-electron system (eV)
  ---------------------------------------------------
  alpha Z        PSCENC =      2397.92104513
  Ewald energy   TEWEN  =    136380.32841298
  -Hartree energ DENC   =   -219267.76639429
  -exchange      EXHF   =         0.00000000
  -V(xc)+E(xc)   XCENC  =      3568.08647062
  PAW double counting   =     86674.00246083   -85871.63613335
  entropy T*S    EENTRO =        -0.02492918
  eigenvalues    EBANDS =    -12850.47408051
  atomic energy  EATOM  =     87776.77885653
  Solvation  Ediel_sol  =         0.00000000
  ---------------------------------------------------
  free energy    TOTEN  =     -1192.78429125 eV

  energy without entropy =    -1192.75936207  energy(sigma->0) =    -1192.77182666


--------------------------------------------------------------------------------------------------------




--------------------------------------- Iteration      1(  78)  ---------------------------------------


    POTLOK:  cpu time      0.0613: real time      0.0613
    SETDIJ:  cpu time      0.9624: real time      0.9630
    EDDIAG:  cpu time      0.7215: real time      0.7221
  RMM-DIIS:  cpu time      3.1072: real time      3.1089
    ORTHCH:  cpu time      0.1355: real time      0.1355
       DOS:  cpu time      0.0010: real time      0.0010
    CHARGE:  cpu time      0.2672: real time      0.2678
    MIXING:  cpu time      0.0083: real time      0.0083
    --------------------------------------------
      LOOP:  cpu time      5.2643: real time      5.2678

 eigenvalue-minimisations  :  5158
 total energy-change (2. order) :-0.4031637E-01  (-0.8617292E-02)
 number of electron    1168.0000015 magnetization      33.3940984
 augmentation part       25.1471623 magnetization       8.4638516

 Broyden mixing:
  rms(total) = 0.49067E+00    rms(broyden)= 0.49063E+00
  rms(prec ) = 0.50045E+00
  weight for this iteration     100.00

 eigenvalues of (default mixing * dielectric matrix)
  average eigenvalue GAMMA=   0.5500
  2.0680  1.4807  0.9513  0.9513  0.8283  0.8283  0.6207  0.6207  0.8832  0.8832
  0.8979  0.7985  0.7985  0.5566  0.5566  0.0701  0.5027  0.5027  0.5314  0.5314
  0.2154  0.2154  0.1185  0.1185  0.5584  0.5584  0.5474  0.5402  0.2981  0.2981
  0.3998  0.3998  0.1750  0.1750  0.4454  0.4454  0.2652  0.2652  0.2933  0.3368
  0.3723  0.3723  0.3757

 Free energy of the ion-electron system (eV)
  ---------------------------------------------------
  alpha Z        PSCENC =      2397.92104513
  Ewald energy   TEWEN  =    136380.32841298
  -Hartree energ DENC   =   -219267.90556164
  -exchange      EXHF   =         0.00000000
  -V(xc)+E(xc)   XCENC  =      3567.96729861
  PAW double counting   =     86675.23647040   -85872.95832468
  entropy T*S    EENTRO =        -0.02254637
  eigenvalues    EBANDS =    -12850.17025858
  atomic energy  EATOM  =     87776.77885653
  Solvation  Ediel_sol  =         0.00000000
  ---------------------------------------------------
  free energy    TOTEN  =     -1192.82460762 eV

  energy without entropy =    -1192.80206125  energy(sigma->0) =    -1192.81333443


--------------------------------------------------------------------------------------------------------




--------------------------------------- Iteration      1(  79)  ---------------------------------------


    POTLOK:  cpu time      0.0607: real time      0.0607
    SETDIJ:  cpu time      0.9746: real time      0.9748
    EDDIAG:  cpu time      0.7225: real time      0.7227
  RMM-DIIS:  cpu time      2.9774: real time      2.9788
    ORTHCH:  cpu time      0.1355: real time      0.1356
       DOS:  cpu time      0.0011: real time      0.0011
    CHARGE:  cpu time      0.2664: real time      0.2671
    MIXING:  cpu time      0.0073: real time      0.0073
    --------------------------------------------
      LOOP:  cpu time      5.1456: real time      5.1480

 eigenvalue-minimisations  :  4861
 total energy-change (2. order) :-0.4111894E-01  (-0.3125911E-02)
 number of electron    1168.0000015 magnetization      33.3809885
 augmentation part       25.1535545 magnetization       8.4520432

 Broyden mixing:
  rms(total) = 0.51915E+00    rms(broyden)= 0.51913E+00
  rms(prec ) = 0.52876E+00
  weight for this iteration     100.00

 eigenvalues of (default mixing * dielectric matrix)
  average eigenvalue GAMMA=   0.5576
  2.1386  1.5804  1.0588  1.0588  0.8393  0.8393  0.9210  0.9210  0.5742  0.5742
  0.9259  0.8007  0.8007  0.0722  0.5561  0.5561  0.5123  0.5123  0.5472  0.5472
  0.5770  0.5770  0.2190  0.2190  0.1161  0.1161  0.3170  0.3170  0.1454  0.5477
  0.5345  0.4061  0.4061  0.4416  0.4416  0.1944  0.2453  0.2453  0.3873  0.3873
  0.3017  0.3542  0.3542  0.3493

 Free energy of the ion-electron system (eV)
  ---------------------------------------------------
  alpha Z        PSCENC =      2397.92104513
  Ewald energy   TEWEN  =    136380.32841298
  -Hartree energ DENC   =   -219268.98510721
  -exchange      EXHF   =         0.00000000
  -V(xc)+E(xc)   XCENC  =      3567.89435203
  PAW double counting   =     86675.79373644   -85873.54020704
  entropy T*S    EENTRO =        -0.02373031
  eigenvalues    EBANDS =    -12849.03308511
  atomic energy  EATOM  =     87776.77885653
  Solvation  Ediel_sol  =         0.00000000
  ---------------------------------------------------
  free energy    TOTEN  =     -1192.86572656 eV

  energy without entropy =    -1192.84199625  energy(sigma->0) =    -1192.85386140


--------------------------------------------------------------------------------------------------------




--------------------------------------- Iteration      1(  80)  ---------------------------------------


    POTLOK:  cpu time      0.0597: real time      0.0597
    SETDIJ:  cpu time      0.9626: real time      0.9628
    EDDIAG:  cpu time      0.7242: real time      0.7243
  RMM-DIIS:  cpu time      2.6763: real time      2.6778
    ORTHCH:  cpu time      0.1353: real time      0.1353
       DOS:  cpu time      0.0011: real time      0.0011
    CHARGE:  cpu time      0.2672: real time      0.2677
    MIXING:  cpu time      0.0089: real time      0.0089
    --------------------------------------------
      LOOP:  cpu time      4.8354: real time      4.8377

 eigenvalue-minimisations  :  4444
 total energy-change (2. order) :-0.2897174E-01  (-0.1099813E-02)
 number of electron    1168.0000015 magnetization      33.1940438
 augmentation part       25.1561759 magnetization       8.2640224

 Broyden mixing:
  rms(total) = 0.53637E+00    rms(broyden)= 0.53636E+00
  rms(prec ) = 0.54677E+00
  weight for this iteration     100.00

 eigenvalues of (default mixing * dielectric matrix)
  average eigenvalue GAMMA=   0.5196
  1.6030  1.6030  0.8279  0.8279  0.5939  0.5939  0.6717  0.6717  0.4244  0.4244
  0.8058  0.8058  0.8223  0.8223  0.0699  0.7272  0.1678  0.1678  0.5674  0.5674
  0.3311  0.3311  0.1255  0.1255  0.3333  0.3333  0.5529  0.5529  0.5075  0.5075
  0.4572  0.4572  0.2452  0.2452  0.2491  0.2756  0.3681  0.3681  0.3162  0.3381

 Free energy of the ion-electron system (eV)
  ---------------------------------------------------
  alpha Z        PSCENC =      2397.92104513
  Ewald energy   TEWEN  =    136380.32841298
  -Hartree energ DENC   =   -219270.07466642
  -exchange      EXHF   =         0.00000000
  -V(xc)+E(xc)   XCENC  =      3567.85246562
  PAW double counting   =     86676.27218427   -85874.03152806
  entropy T*S    EENTRO =        -0.02326140
  eigenvalues    EBANDS =    -12847.91820695
  atomic energy  EATOM  =     87776.77885653
  Solvation  Ediel_sol  =         0.00000000
  ---------------------------------------------------
  free energy    TOTEN  =     -1192.89469830 eV

  energy without entropy =    -1192.87143690  energy(sigma->0) =    -1192.88306760


--------------------------------------------------------------------------------------------------------




--------------------------------------- Iteration      1(  81)  ---------------------------------------


    POTLOK:  cpu time      0.0600: real time      0.0600
    SETDIJ:  cpu time      0.9721: real time      0.9722
    EDDIAG:  cpu time      0.7212: real time      0.7213
  RMM-DIIS:  cpu time      3.2248: real time      3.2268
    ORTHCH:  cpu time      0.1348: real time      0.1348
       DOS:  cpu time      0.0010: real time      0.0010
    CHARGE:  cpu time      0.2680: real time      0.2680
    MIXING:  cpu time      0.0068: real time      0.0068
    --------------------------------------------
      LOOP:  cpu time      5.3887: real time      5.3910

 eigenvalue-minimisations  :  5296
 total energy-change (2. order) : 0.2202592E+00  (-0.8750472E-01)
 number of electron    1168.0000015 magnetization      33.1682468
 augmentation part       25.1231357 magnetization       8.2172357

 Broyden mixing:
  rms(total) = 0.45932E+00    rms(broyden)= 0.45896E+00
  rms(prec ) = 0.47856E+00
  weight for this iteration     100.00

 eigenvalues of (default mixing * dielectric matrix)
  average eigenvalue GAMMA=   0.5235
  1.7132  1.6640  0.8567  0.8567  0.5823  0.5823  0.9088  0.9088  0.4073  0.4073
  0.7952  0.7952  0.6281  0.6281  0.7347  0.6282  0.6282  0.0610  0.1447  0.1447
  0.3400  0.3400  0.5550  0.5550  0.5120  0.5120  0.1385  0.1385  0.3471  0.3471
  0.4367  0.4367  0.2197  0.2197  0.3662  0.3662  0.3737  0.2733  0.2733  0.3019
  0.3365

 Free energy of the ion-electron system (eV)
  ---------------------------------------------------
  alpha Z        PSCENC =      2397.92104513
  Ewald energy   TEWEN  =    136380.32841298
  -Hartree energ DENC   =   -219275.70096209
  -exchange      EXHF   =         0.00000000
  -V(xc)+E(xc)   XCENC  =      3568.27379497
  PAW double counting   =     86683.48204111   -85880.85149165
  entropy T*S    EENTRO =        -0.03537604
  eigenvalues    EBANDS =    -12842.87076002
  atomic energy  EATOM  =     87776.77885653
  Solvation  Ediel_sol  =         0.00000000
  ---------------------------------------------------
  free energy    TOTEN  =     -1192.67443908 eV

  energy without entropy =    -1192.63906304  energy(sigma->0) =    -1192.65675106


--------------------------------------------------------------------------------------------------------




--------------------------------------- Iteration      1(  82)  ---------------------------------------


    POTLOK:  cpu time      0.0602: real time      0.0602
    SETDIJ:  cpu time      0.9738: real time      0.9744
    EDDIAG:  cpu time      0.7243: real time      0.7246
  RMM-DIIS:  cpu time      3.1295: real time      3.1315
    ORTHCH:  cpu time      0.1355: real time      0.1355
       DOS:  cpu time      0.0010: real time      0.0010
    CHARGE:  cpu time      0.2678: real time      0.2678
    MIXING:  cpu time      0.0070: real time      0.0070
    --------------------------------------------
      LOOP:  cpu time      5.2991: real time      5.3020

 eigenvalue-minimisations  :  5168
 total energy-change (2. order) :-0.2678552E+00  (-0.1112516E-01)
 number of electron    1168.0000015 magnetization      33.1042303
 augmentation part       25.1424322 magnetization       8.1510252

 Broyden mixing:
  rms(total) = 0.47196E+00    rms(broyden)= 0.47185E+00
  rms(prec ) = 0.49354E+00
  weight for this iteration     100.00

 eigenvalues of (default mixing * dielectric matrix)
  average eigenvalue GAMMA=   0.5353
  2.0815  1.5382  0.9044  0.9044  0.5903  0.5903  0.8661  0.8661  0.8712  0.8712
  0.6687  0.6687  0.4151  0.4151  0.0611  0.6215  0.6215  0.1525  0.1525  0.6293
  0.3334  0.3334  0.4767  0.4767  0.5252  0.5252  0.5415  0.5415  0.3491  0.3491
  0.1315  0.1315  0.4539  0.4539  0.2377  0.2377  0.2663  0.2663  0.3072  0.3605
  0.3605  0.3356

 Free energy of the ion-electron system (eV)
  ---------------------------------------------------
  alpha Z        PSCENC =      2397.92104513
  Ewald energy   TEWEN  =    136380.32841298
  -Hartree energ DENC   =   -219279.73485977
  -exchange      EXHF   =         0.00000000
  -V(xc)+E(xc)   XCENC  =      3568.04805304
  PAW double counting   =     86683.40905566   -85880.87095602
  entropy T*S    EENTRO =        -0.03020899
  eigenvalues    EBANDS =    -12838.79169283
  atomic energy  EATOM  =     87776.77885653
  Solvation  Ediel_sol  =         0.00000000
  ---------------------------------------------------
  free energy    TOTEN  =     -1192.94229427 eV

  energy without entropy =    -1192.91208529  energy(sigma->0) =    -1192.92718978


--------------------------------------------------------------------------------------------------------




--------------------------------------- Iteration      1(  83)  ---------------------------------------


    POTLOK:  cpu time      0.0601: real time      0.0601
    SETDIJ:  cpu time      0.9724: real time      0.9730
    EDDIAG:  cpu time      0.7240: real time      0.7241
  RMM-DIIS:  cpu time      3.1096: real time      3.1113
    ORTHCH:  cpu time      0.1353: real time      0.1353
       DOS:  cpu time      0.0007: real time      0.0007
    CHARGE:  cpu time      0.2688: real time      0.2688
    MIXING:  cpu time      0.0071: real time      0.0071
    --------------------------------------------
      LOOP:  cpu time      5.2779: real time      5.2804

 eigenvalue-minimisations  :  5135
 total energy-change (2. order) :-0.1887418E+00  (-0.6093357E-02)
 number of electron    1168.0000015 magnetization      33.0939919
 augmentation part       25.1619684 magnetization       8.1378935

 Broyden mixing:
  rms(total) = 0.48550E+00    rms(broyden)= 0.48546E+00
  rms(prec ) = 0.50800E+00
  weight for this iteration     100.00

 eigenvalues of (default mixing * dielectric matrix)
  average eigenvalue GAMMA=   0.5403
  2.0327  1.5690  0.9211  0.9211  0.6329  0.6329  0.4072  0.4072  0.8905  0.8905
  0.8302  0.8302  0.7090  0.7090  0.0587  0.6730  0.6730  0.1405  0.1405  0.5461
  0.5461  0.3556  0.3556  0.6020  0.6020  0.1357  0.1357  0.5522  0.4759  0.4759
  0.3517  0.3517  0.4819  0.4819  0.2227  0.2227  0.2798  0.2798  0.3698  0.3573
  0.3573  0.3117  0.3117

 Free energy of the ion-electron system (eV)
  ---------------------------------------------------
  alpha Z        PSCENC =      2397.92104513
  Ewald energy   TEWEN  =    136380.32841298
  -Hartree energ DENC   =   -219283.22995897
  -exchange      EXHF   =         0.00000000
  -V(xc)+E(xc)   XCENC  =      3567.90247084
  PAW double counting   =     86680.93175920   -85878.54072368
  entropy T*S    EENTRO =        -0.02803228
  eigenvalues    EBANDS =    -12835.19486580
  atomic energy  EATOM  =     87776.77885653
  Solvation  Ediel_sol  =         0.00000000
  ---------------------------------------------------
  free energy    TOTEN  =     -1193.13103604 eV

  energy without entropy =    -1193.10300376  energy(sigma->0) =    -1193.11701990


--------------------------------------------------------------------------------------------------------




--------------------------------------- Iteration      1(  84)  ---------------------------------------


    POTLOK:  cpu time      0.0593: real time      0.0597
    SETDIJ:  cpu time      0.9653: real time      0.9654
    EDDIAG:  cpu time      0.7240: real time      0.7242
  RMM-DIIS:  cpu time      3.0432: real time      3.0447
    ORTHCH:  cpu time      0.1363: real time      0.1365
       DOS:  cpu time      0.0007: real time      0.0008
    CHARGE:  cpu time      0.2685: real time      0.2694
    MIXING:  cpu time      0.0072: real time      0.0073
    --------------------------------------------
      LOOP:  cpu time      5.2047: real time      5.2082

 eigenvalue-minimisations  :  5011
 total energy-change (2. order) :-0.1015236E+00  (-0.3381352E-02)
 number of electron    1168.0000015 magnetization      33.0061475
 augmentation part       25.1590425 magnetization       8.0498924

 Broyden mixing:
  rms(total) = 0.47341E+00    rms(broyden)= 0.47336E+00
  rms(prec ) = 0.49521E+00
  weight for this iteration     100.00

 eigenvalues of (default mixing * dielectric matrix)
  average eigenvalue GAMMA=   0.5492
  2.1628  1.5520  0.9057  0.9057  0.8922  0.8922  0.6896  0.6896  0.9007  0.9007
  0.6375  0.6375  0.7795  0.7795  0.3460  0.3460  0.0626  0.6130  0.6130  0.1443
  0.1443  0.5953  0.5953  0.1222  0.3751  0.3751  0.1739  0.2150  0.2150  0.3460
  0.3460  0.5517  0.4757  0.4757  0.4345  0.4345  0.4646  0.4646  0.2745  0.2745
  0.3036  0.3596  0.3596  0.3405

 Free energy of the ion-electron system (eV)
  ---------------------------------------------------
  alpha Z        PSCENC =      2397.92104513
  Ewald energy   TEWEN  =    136380.32841298
  -Hartree energ DENC   =   -219287.89872706
  -exchange      EXHF   =         0.00000000
  -V(xc)+E(xc)   XCENC  =      3567.84889855
  PAW double counting   =     86679.02859009   -85876.80233372
  entropy T*S    EENTRO =        -0.02396671
  eigenvalues    EBANDS =    -12830.41333543
  atomic energy  EATOM  =     87776.77885653
  Solvation  Ediel_sol  =         0.00000000
  ---------------------------------------------------
  free energy    TOTEN  =     -1193.23255964 eV

  energy without entropy =    -1193.20859293  energy(sigma->0) =    -1193.22057628


--------------------------------------------------------------------------------------------------------




--------------------------------------- Iteration      1(  85)  ---------------------------------------


    POTLOK:  cpu time      0.0593: real time      0.0593
    SETDIJ:  cpu time      0.9744: real time      0.9745
    EDDIAG:  cpu time      0.7200: real time      0.7201
  RMM-DIIS:  cpu time      3.0473: real time      3.0485
    ORTHCH:  cpu time      0.1351: real time      0.1356
       DOS:  cpu time      0.0007: real time      0.0007
    CHARGE:  cpu time      0.2650: real time      0.2654
    MIXING:  cpu time      0.0080: real time      0.0080
    --------------------------------------------
      LOOP:  cpu time      5.2098: real time      5.2120

 eigenvalue-minimisations  :  5009
 total energy-change (2. order) :-0.1152257E+00  (-0.3493995E-02)
 number of electron    1168.0000015 magnetization      33.5737854
 augmentation part       25.1547234 magnetization       8.6203385

 Broyden mixing:
  rms(total) = 0.52907E+00    rms(broyden)= 0.52897E+00
  rms(prec ) = 0.55425E+00
  weight for this iteration     100.00

 eigenvalues of (default mixing * dielectric matrix)
  average eigenvalue GAMMA=   0.5595
  1.9885  1.2251  1.2251  1.3411  1.0387  0.6315  0.6315  0.6810  0.6810  0.7525
  0.7525  0.8049  0.8049  0.8239  0.0286  0.5531  0.5531  0.1591  0.1591  0.3590
  0.3590  0.0579  0.4532  0.4532  0.5406  0.5406  0.4772  0.4772  0.4786  0.4786
  0.2323  0.2323  0.2002  0.2002  0.3877  0.3877  0.3469  0.2833  0.2994  0.2994

 Free energy of the ion-electron system (eV)
  ---------------------------------------------------
  alpha Z        PSCENC =      2397.92104513
  Ewald energy   TEWEN  =    136380.32841298
  -Hartree energ DENC   =   -219292.22040006
  -exchange      EXHF   =         0.00000000
  -V(xc)+E(xc)   XCENC  =      3567.78016201
  PAW double counting   =     86678.92469402   -85876.80899427
  entropy T*S    EENTRO =        -0.03439259
  eigenvalues    EBANDS =    -12826.01716908
  atomic energy  EATOM  =     87776.77885653
  Solvation  Ediel_sol  =         0.00000000
  ---------------------------------------------------
  free energy    TOTEN  =     -1193.34778533 eV

  energy without entropy =    -1193.31339274  energy(sigma->0) =    -1193.33058903


--------------------------------------------------------------------------------------------------------




--------------------------------------- Iteration      1(  86)  ---------------------------------------


    POTLOK:  cpu time      0.0578: real time      0.0578
    SETDIJ:  cpu time      0.9729: real time      0.9730
    EDDIAG:  cpu time      0.7222: real time      0.7225
  RMM-DIIS:  cpu time      3.2208: real time      3.2228
    ORTHCH:  cpu time      0.1317: real time      0.1317
       DOS:  cpu time      0.0008: real time      0.0008
    CHARGE:  cpu time      0.2640: real time      0.2643
    MIXING:  cpu time      0.0066: real time      0.0067
    --------------------------------------------
      LOOP:  cpu time      5.3767: real time      5.3795

 eigenvalue-minimisations  :  5294
 total energy-change (2. order) : 0.3672020E+00  (-0.4528273E-01)
 number of electron    1168.0000015 magnetization      33.1243530
 augmentation part       25.1738731 magnetization       8.1582743

 Broyden mixing:
  rms(total) = 0.33516E+00    rms(broyden)= 0.33455E+00
  rms(prec ) = 0.36113E+00
  weight for this iteration     100.00

 eigenvalues of (default mixing * dielectric matrix)
  average eigenvalue GAMMA=   0.5656
  2.0273  1.5895  1.2262  1.2262  0.6509  0.6509  1.0323  0.6657  0.6657  0.7912
  0.7912  0.8261  0.7375  0.7375  0.0243  0.1571  0.1571  0.0666  0.3727  0.3727
  0.5351  0.5351  0.6131  0.6131  0.4551  0.4551  0.5321  0.5321  0.1865  0.1865
  0.4562  0.4225  0.4225  0.2565  0.2565  0.4083  0.3704  0.3165  0.3110  0.2850
  0.2723

 Free energy of the ion-electron system (eV)
  ---------------------------------------------------
  alpha Z        PSCENC =      2397.92104513
  Ewald energy   TEWEN  =    136380.32841298
  -Hartree energ DENC   =   -219289.51657860
  -exchange      EXHF   =         0.00000000
  -V(xc)+E(xc)   XCENC  =      3568.19328056
  PAW double counting   =     86670.52844571   -85868.74276715
  entropy T*S    EENTRO =        -0.00772617
  eigenvalues    EBANDS =    -12828.46355236
  atomic energy  EATOM  =     87776.77885653
  Solvation  Ediel_sol  =         0.00000000
  ---------------------------------------------------
  free energy    TOTEN  =     -1192.98058336 eV

  energy without entropy =    -1192.97285719  energy(sigma->0) =    -1192.97672028


--------------------------------------------------------------------------------------------------------




--------------------------------------- Iteration      1(  87)  ---------------------------------------


    POTLOK:  cpu time      0.0572: real time      0.0572
    SETDIJ:  cpu time      0.9732: real time      0.9737
    EDDIAG:  cpu time      0.7219: real time      0.7221
  RMM-DIIS:  cpu time      3.1669: real time      3.1686
    ORTHCH:  cpu time      0.1330: real time      0.1330
       DOS:  cpu time      0.0007: real time      0.0007
    CHARGE:  cpu time      0.2644: real time      0.2657
    MIXING:  cpu time      0.0078: real time      0.0078
    --------------------------------------------
      LOOP:  cpu time      5.3250: real time      5.3288

 eigenvalue-minimisations  :  5167
 total energy-change (2. order) :-0.3383142E+00  (-0.9232562E-02)
 number of electron    1168.0000015 magnetization      32.9132326
 augmentation part       25.1625442 magnetization       7.9594997

 Broyden mixing:
  rms(total) = 0.29223E+00    rms(broyden)= 0.29220E+00
  rms(prec ) = 0.31406E+00
  weight for this iteration     100.00

 eigenvalues of (default mixing * dielectric matrix)
  average eigenvalue GAMMA=   0.5735
  2.0554  1.7087  1.2461  1.2461  1.0254  0.6361  0.6361  0.6773  0.6773  0.8093
  0.8093  0.7666  0.7666  0.8279  0.0240  0.6921  0.6921  0.1560  0.1560  0.0657
  0.3725  0.3725  0.5267  0.5267  0.4561  0.4561  0.5438  0.5438  0.1841  0.1841
  0.4851  0.4851  0.4306  0.4077  0.4077  0.2562  0.2562  0.2422  0.3619  0.2876
  0.3167  0.3108

 Free energy of the ion-electron system (eV)
  ---------------------------------------------------
  alpha Z        PSCENC =      2397.92104513
  Ewald energy   TEWEN  =    136380.32841298
  -Hartree energ DENC   =   -219292.34605582
  -exchange      EXHF   =         0.00000000
  -V(xc)+E(xc)   XCENC  =      3567.78906281
  PAW double counting   =     86664.29579825   -85862.70143568
  entropy T*S    EENTRO =        -0.01889659
  eigenvalues    EBANDS =    -12825.36568512
  atomic energy  EATOM  =     87776.77885653
  Solvation  Ediel_sol  =         0.00000000
  ---------------------------------------------------
  free energy    TOTEN  =     -1193.31889752 eV

  energy without entropy =    -1193.30000093  energy(sigma->0) =    -1193.30944922


--------------------------------------------------------------------------------------------------------




--------------------------------------- Iteration      1(  88)  ---------------------------------------


    POTLOK:  cpu time      0.0589: real time      0.0589
    SETDIJ:  cpu time      0.9717: real time      0.9718
    EDDIAG:  cpu time      0.7218: real time      0.7219
  RMM-DIIS:  cpu time      3.0267: real time      3.0279
    ORTHCH:  cpu time      0.1323: real time      0.1328
       DOS:  cpu time      0.0009: real time      0.0009
    CHARGE:  cpu time      0.2653: real time      0.2653
    MIXING:  cpu time      0.0071: real time      0.0073
    --------------------------------------------
      LOOP:  cpu time      5.1848: real time      5.1869

 eigenvalue-minimisations  :  4957
 total energy-change (2. order) :-0.1288772E+00  (-0.3137474E-02)
 number of electron    1168.0000015 magnetization      32.7779097
 augmentation part       25.1634521 magnetization       7.8314502

 Broyden mixing:
  rms(total) = 0.28064E+00    rms(broyden)= 0.28059E+00
  rms(prec ) = 0.29993E+00
  weight for this iteration     100.00

 eigenvalues of (default mixing * dielectric matrix)
  average eigenvalue GAMMA=   0.5794
  2.0670  1.7716  1.2514  1.2514  1.0281  0.6426  0.6426  0.9050  0.9050  0.6848
  0.6848  0.7559  0.7559  0.8340  0.0252  0.7001  0.7001  0.1565  0.1565  0.0632
  0.5321  0.5321  0.3636  0.3636  0.6238  0.4503  0.4503  0.5394  0.5394  0.1732
  0.2380  0.2380  0.2059  0.4715  0.4432  0.4432  0.4252  0.2550  0.3537  0.3410
  0.3221  0.3221  0.3062

 Free energy of the ion-electron system (eV)
  ---------------------------------------------------
  alpha Z        PSCENC =      2397.92104513
  Ewald energy   TEWEN  =    136380.32841298
  -Hartree energ DENC   =   -219294.88811778
  -exchange      EXHF   =         0.00000000
  -V(xc)+E(xc)   XCENC  =      3567.66724118
  PAW double counting   =     86661.41644899   -85859.90221982
  entropy T*S    EENTRO =        -0.02626397
  eigenvalues    EBANDS =    -12822.74317795
  atomic energy  EATOM  =     87776.77885653
  Solvation  Ediel_sol  =         0.00000000
  ---------------------------------------------------
  free energy    TOTEN  =     -1193.44777471 eV

  energy without entropy =    -1193.42151074  energy(sigma->0) =    -1193.43464273


--------------------------------------------------------------------------------------------------------




--------------------------------------- Iteration      1(  89)  ---------------------------------------


    POTLOK:  cpu time      0.0581: real time      0.0834
    SETDIJ:  cpu time      0.9737: real time      0.9738
    EDDIAG:  cpu time      0.7233: real time      0.7235
  RMM-DIIS:  cpu time      2.9644: real time      2.9658
    ORTHCH:  cpu time      0.1333: real time      0.1334
       DOS:  cpu time      0.0006: real time      0.0006
    CHARGE:  cpu time      0.2665: real time      0.2668
    MIXING:  cpu time      0.0071: real time      0.0071
    --------------------------------------------
      LOOP:  cpu time      5.1270: real time      5.1542

 eigenvalue-minimisations  :  4785
 total energy-change (2. order) :-0.6750065E-01  (-0.1418675E-02)
 number of electron    1168.0000015 magnetization      32.6127252
 augmentation part       25.1666528 magnetization       7.6704325

 Broyden mixing:
  rms(total) = 0.26442E+00    rms(broyden)= 0.26441E+00
  rms(prec ) = 0.28406E+00
  weight for this iteration     100.00

 eigenvalues of (default mixing * dielectric matrix)
  average eigenvalue GAMMA=   0.5891
  2.0690  1.7835  1.2968  1.2968  0.6515  0.6515  1.0504  0.9512  0.9512  0.6815
  0.6815  0.7906  0.7906  0.8286  0.0253  0.7051  0.7051  0.1549  0.1549  0.0625
  0.3634  0.3634  0.6810  0.5419  0.5419  0.6170  0.4543  0.4543  0.5498  0.5498
  0.1631  0.2389  0.2389  0.4460  0.4460  0.4584  0.2166  0.4188  0.2465  0.3776
  0.3395  0.2987  0.3128  0.3206

 Free energy of the ion-electron system (eV)
  ---------------------------------------------------
  alpha Z        PSCENC =      2397.92104513
  Ewald energy   TEWEN  =    136380.32841298
  -Hartree energ DENC   =   -219294.74367097
  -exchange      EXHF   =         0.00000000
  -V(xc)+E(xc)   XCENC  =      3567.56533541
  PAW double counting   =     86658.15372793   -85856.71088872
  entropy T*S    EENTRO =        -0.02472977
  eigenvalues    EBANDS =    -12822.78336388
  atomic energy  EATOM  =     87776.77885653
  Solvation  Ediel_sol  =         0.00000000
  ---------------------------------------------------
  free energy    TOTEN  =     -1193.51527536 eV

  energy without entropy =    -1193.49054559  energy(sigma->0) =    -1193.50291048


--------------------------------------------------------------------------------------------------------




--------------------------------------- Iteration      1(  90)  ---------------------------------------


    POTLOK:  cpu time      0.0592: real time      0.0592
    SETDIJ:  cpu time      0.9731: real time      0.9736
    EDDIAG:  cpu time      0.7220: real time      0.7223
  RMM-DIIS:  cpu time      2.8809: real time      2.8825
    ORTHCH:  cpu time      0.1331: real time      0.1331
       DOS:  cpu time      0.0006: real time      0.0006
    --------------------------------------------
      LOOP:  cpu time      4.7689: real time      4.7713

 eigenvalue-minimisations  :  4687
 total energy-change (2. order) :-0.5086952E-01  (-0.1130631E-02)
 number of electron    1168.0000015 magnetization      32.6127252
 augmentation part       25.1666528 magnetization       7.6704325

 Free energy of the ion-electron system (eV)
  ---------------------------------------------------
  alpha Z        PSCENC =      2397.92104513
  Ewald energy   TEWEN  =    136380.32841298
  -Hartree energ DENC   =   -219293.68618399
  -exchange      EXHF   =         0.00000000
  -V(xc)+E(xc)   XCENC  =      3567.46227485
  PAW double counting   =     86655.03349818   -85853.61208143
  entropy T*S    EENTRO =        -0.02574366
  eigenvalues    EBANDS =    -12823.76622348
  atomic energy  EATOM  =     87776.77885653
  Solvation  Ediel_sol  =         0.00000000
  ---------------------------------------------------
  free energy    TOTEN  =     -1193.56614488 eV

  energy without entropy =    -1193.54040122  energy(sigma->0) =    -1193.55327305


--------------------------------------------------------------------------------------------------------




 average (electrostatic) potential at core
  the test charge radii are     1.1513  1.2793  0.7215  0.5201
  (the norm of the test charge is              1.0000)
       1 -86.0966       2 -86.0575       3 -86.0081       4 -86.0637       5 -86.2182
       6 -86.0440       7 -86.1270       8 -86.0603       9 -86.0490      10 -86.0367
      11 -86.1346      12 -86.1182      13 -86.1763      14 -86.0811      15 -86.1653
      16 -86.0253      17 -86.1117      18 -86.0569      19 -86.0430      20 -86.0794
      21 -86.2230      22 -86.0630      23 -86.1446      24 -86.0632      25 -86.0574
      26 -86.0547      27 -86.1625      28 -86.1181      29 -86.2266      30 -86.0905
      31 -86.2003      32 -86.0509      33 -63.2426      34 -63.3410      35 -63.4883
      36 -63.0527      37 -75.2662      38 -74.9937      39 -74.5265      40 -75.0840
      41 -76.6999      42 -76.7162      43 -75.2885      44 -74.9475      45 -75.0131
      46 -75.1201      47 -76.7156      48 -75.2768      49 -74.8983      50 -74.6260
      51 -75.0741      52 -76.6925      53 -77.1468      54 -75.2497      55 -75.1211
      56 -74.5802      57 -75.0973      58 -76.7370      59 -75.2357      60 -75.1084
      61 -74.5884      62 -75.0584      63 -76.6415      64 -75.2754      65 -74.8966
      66 -74.6728      67 -75.0381      68 -76.7040      69 -75.3593      70 -75.2984
      71 -74.9805      72 -75.2851      73 -74.9779      74 -76.7049      75 -75.2574
      76 -75.0176      77 -74.5666      78 -75.1180      79 -76.5692      80 -75.2713
      81 -75.0261      82 -74.5366      83 -75.0874      84 -76.6865      85 -76.8747
      86 -75.2760      87 -74.9869      88 -75.2643      89 -75.1243      90 -76.7062
      91 -75.2984      92 -74.9212      93 -74.7034      94 -75.0844      95 -76.7363
      96 -77.0861      97 -75.2926      98 -75.1427      99 -74.6290     100 -75.1090
     101 -76.7143     102 -75.2783     103 -75.1076     104 -74.5643     105 -75.0738
     106 -76.7338     107 -75.2832     108 -74.9192     109 -74.6735     110 -75.0532
     111 -76.6565     112 -75.3933     113 -75.2821     114 -74.9937     115 -75.2081
     116 -74.9907     117 -76.7139     118 -75.2835     119 -75.0316     120 -74.5664
     121 -75.1320     122 -76.6830     123 -76.5943     124 -76.4894     125 -76.7218
     126 -77.4214     127 -77.5454     128 -77.2975     129 -76.7060     130 -76.6921
     131 -76.5074     132 -76.3553     133 -77.5114     134 -76.5099     135 -77.9083
     136 -76.0085     137 -75.3220     138 -78.6535     139 -77.7035     140 -78.1300
     141 -78.5217     142 -75.3375     143 -76.7142     144 -75.7720     145 -77.0989
     146 -76.0925     147 -76.9766     148 -75.7320     149 -76.7934     150 -76.0652
     151 -78.6350     152 -75.7532     153 -75.4958     154 -77.3188     155 -42.0784
     156 -41.7688     157 -40.1782     158 -39.9828     159 -40.0505     160 -42.2697
     161 -43.0529     162 -42.2465     163 -41.9056     164 -41.9046     165 -41.8720
     166 -42.0564     167 -42.4795     168 -42.1663     169 -39.9419     170 -39.6967
     171 -41.4688     172 -40.8614     173 -39.9017     174 -39.7796     175 -41.7480
     176 -41.6128     177 -40.0092     178 -39.9747     179 -41.1675     180 -40.9133
     181 -39.8163     182 -39.7442     183 -40.8112     184 -41.0712     185 -40.4917
     186 -39.8471     187 -42.1528     188 -42.3687     189 -39.7061     190 -39.9474
     191 -39.6975     192 -39.4840     193 -41.2717     194 -41.4391
 
 
 
 E-fermi :  -1.1968     XC(G=0):  -6.0608     alpha+bet : -6.1813

 val. band max:       -1.2207972872   @ k =   0.0000   0.0000   0.0000
 cond. band min:      -1.1645597044   @ k =   0.0000   0.0000   0.0000
 fundamental gap:      0.0562375828
 Fermi energy:        -1.1968365994

 spin component 1

 k-point     1 :       0.0000    0.0000    0.0000
  band No.  band energies     occupation 
      1     -35.3564      1.00000
      2     -35.3205      1.00000
      3     -35.3041      1.00000
      4     -35.2985      1.00000
      5     -35.2810      1.00000
      6     -35.2768      1.00000
      7     -35.2711      1.00000
      8     -35.2540      1.00000
      9     -35.2420      1.00000
     10     -35.2331      1.00000
     11     -35.2256      1.00000
     12     -35.2208      1.00000
     13     -35.2154      1.00000
     14     -35.1947      1.00000
     15     -35.1904      1.00000
     16     -35.1861      1.00000
     17     -35.1784      1.00000
     18     -35.1763      1.00000
     19     -35.1710      1.00000
     20     -35.1664      1.00000
     21     -35.1603      1.00000
     22     -35.1529      1.00000
     23     -35.1478      1.00000
     24     -35.1322      1.00000
     25     -35.1281      1.00000
     26     -35.1205      1.00000
     27     -35.1183      1.00000
     28     -35.1161      1.00000
     29     -35.1100      1.00000
     30     -35.1072      1.00000
     31     -35.1030      1.00000
     32     -35.0914      1.00000
     33     -24.7098      1.00000
     34     -24.6330      1.00000
     35     -24.4227      1.00000
     36     -23.2378      1.00000
     37     -22.7072      1.00000
     38     -22.6679      1.00000
     39     -22.0307      1.00000
     40     -21.9665      1.00000
     41     -21.8491      1.00000
     42     -21.5542      1.00000
     43     -21.5481      1.00000
     44     -21.5076      1.00000
     45     -20.7917      1.00000
     46     -20.7315      1.00000
     47     -20.5709      1.00000
     48     -20.5537      1.00000
     49     -20.5135      1.00000
     50     -20.5121      1.00000
     51     -20.4774      1.00000
     52     -20.4661      1.00000
     53     -20.4175      1.00000
     54     -20.3971      1.00000
     55     -20.3593      1.00000
     56     -20.3118      1.00000
     57     -20.2917      1.00000
     58     -20.2729      1.00000
     59     -20.2550      1.00000
     60     -20.2532      1.00000
     61     -20.2382      1.00000
     62     -20.2189      1.00000
     63     -20.1841      1.00000
     64     -20.1804      1.00000
     65     -20.1734      1.00000
     66     -20.1621      1.00000
     67     -20.1584      1.00000
     68     -20.1515      1.00000
     69     -20.1496      1.00000
     70     -20.1443      1.00000
     71     -20.1422      1.00000
     72     -20.1125      1.00000
     73     -20.1025      1.00000
     74     -20.0958      1.00000
     75     -20.0775      1.00000
     76     -20.0696      1.00000
     77     -20.0641      1.00000
     78     -20.0393      1.00000
     79     -20.0093      1.00000
     80     -19.9738      1.00000
     81     -19.9641      1.00000
     82     -19.9490      1.00000
     83     -19.9184      1.00000
     84     -19.8559      1.00000
     85     -19.8133      1.00000
     86     -19.7441      1.00000
     87     -19.7405      1.00000
     88     -19.7324      1.00000
     89     -19.7290      1.00000
     90     -19.7170      1.00000
     91     -19.7052      1.00000
     92     -19.6906      1.00000
     93     -19.6839      1.00000
     94     -19.6498      1.00000
     95     -19.6424      1.00000
     96     -19.6284      1.00000
     97     -19.6174      1.00000
     98     -19.5963      1.00000
     99     -19.5789      1.00000
    100     -19.5731      1.00000
    101     -19.5656      1.00000
    102     -19.5382      1.00000
    103     -19.5089      1.00000
    104     -19.4928      1.00000
    105     -19.4315      1.00000
    106     -19.4244      1.00000
    107     -19.3981      1.00000
    108     -19.3866      1.00000
    109     -19.3561      1.00000
    110     -19.3381      1.00000
    111     -19.2543      1.00000
    112     -19.2368      1.00000
    113     -19.2313      1.00000
    114     -19.2283      1.00000
    115     -19.2219      1.00000
    116     -19.2166      1.00000
    117     -19.2065      1.00000
    118     -19.0567      1.00000
    119     -19.0222      1.00000
    120     -19.0102      1.00000
    121     -18.9810      1.00000
    122     -18.9673      1.00000
    123     -18.9579      1.00000
    124     -18.9239      1.00000
    125     -18.8839      1.00000
    126     -18.8669      1.00000
    127     -18.8404      1.00000
    128     -18.8219      1.00000
    129     -18.7994      1.00000
    130     -18.7920      1.00000
    131     -18.7447      1.00000
    132     -18.6538      1.00000
    133     -18.6250      1.00000
    134     -18.5963      1.00000
    135     -18.4357      1.00000
    136     -18.4082      1.00000
    137     -18.3323      1.00000
    138     -18.2597      1.00000
    139     -18.1402      1.00000
    140     -18.1274      1.00000
    141     -18.0519      1.00000
    142     -17.9487      1.00000
    143     -17.8301      1.00000
    144     -17.8123      1.00000
    145     -17.7874      1.00000
    146     -17.7847      1.00000
    147     -17.7817      1.00000
    148     -17.7678      1.00000
    149     -17.7373      1.00000
    150     -17.7230      1.00000
    151     -17.7122      1.00000
    152     -17.6950      1.00000
    153     -17.6862      1.00000
    154     -17.6739      1.00000
    155     -17.6662      1.00000
    156     -17.6570      1.00000
    157     -17.6531      1.00000
    158     -17.6439      1.00000
    159     -17.6426      1.00000
    160     -17.6381      1.00000
    161     -17.6252      1.00000
    162     -17.6042      1.00000
    163     -17.5929      1.00000
    164     -17.5848      1.00000
    165     -17.5828      1.00000
    166     -17.5674      1.00000
    167     -17.5364      1.00000
    168     -17.5341      1.00000
    169     -17.5248      1.00000
    170     -17.5192      1.00000
    171     -17.5141      1.00000
    172     -17.5051      1.00000
    173     -17.5015      1.00000
    174     -17.4933      1.00000
    175     -17.4608      1.00000
    176     -17.4106      1.00000
    177     -17.4078      1.00000
    178     -17.3991      1.00000
    179     -17.2543      1.00000
    180     -17.2497      1.00000
    181     -17.2425      1.00000
    182     -17.2363      1.00000
    183     -17.2272      1.00000
    184     -17.2221      1.00000
    185     -17.1919      1.00000
    186     -17.1836      1.00000
    187     -17.1680      1.00000
    188     -17.1598      1.00000
    189     -17.1414      1.00000
    190     -17.1296      1.00000
    191     -17.1160      1.00000
    192     -16.9624      1.00000
    193     -16.9125      1.00000
    194     -16.8013      1.00000
    195     -16.7065      1.00000
    196     -16.5896      1.00000
    197     -16.4801      1.00000
    198     -16.3715      1.00000
    199     -16.3282      1.00000
    200     -16.2368      1.00000
    201     -16.2317      1.00000
    202     -16.2280      1.00000
    203     -16.2055      1.00000
    204     -16.2009      1.00000
    205     -16.1466      1.00000
    206     -16.0579      1.00000
    207     -16.0235      1.00000
    208     -15.9925      1.00000
    209     -15.9646      1.00000
    210     -15.9473      1.00000
    211     -15.8298      1.00000
    212     -15.8143      1.00000
    213     -15.7991      1.00000
    214     -15.7448      1.00000
    215     -15.7194      1.00000
    216     -15.6387      1.00000
    217     -15.6344      1.00000
    218     -15.6127      1.00000
    219     -15.6026      1.00000
    220     -15.5742      1.00000
    221     -15.5463      1.00000
    222     -15.2997      1.00000
    223     -15.2728      1.00000
    224     -15.2572      1.00000
    225     -15.2128      1.00000
    226     -15.1861      1.00000
    227     -15.1827      1.00000
    228     -15.1804      1.00000
    229     -15.1789      1.00000
    230     -15.1708      1.00000
    231     -15.1700      1.00000
    232     -15.1599      1.00000
    233     -15.1535      1.00000
    234     -15.1002      1.00000
    235     -15.0240      1.00000
    236     -14.9786      1.00000
    237     -14.9147      1.00000
    238     -14.9045      1.00000
    239     -14.8401      1.00000
    240     -14.8277      1.00000
    241     -14.7484      1.00000
    242     -14.7359      1.00000
    243     -14.6972      1.00000
    244     -14.4166      1.00000
    245     -14.3525      1.00000
    246     -14.2479      1.00000
    247     -12.8639      1.00000
    248     -12.0332      1.00000
    249     -11.7019      1.00000
    250     -11.4662      1.00000
    251     -11.1945      1.00000
    252     -10.4483      1.00000
    253     -10.3485      1.00000
    254      -9.9840      1.00000
    255      -9.9558      1.00000
    256      -9.8460      1.00000
    257      -9.5693      1.00000
    258      -9.4938      1.00000
    259      -9.3565      1.00000
    260      -9.1891      1.00000
    261      -9.0686      1.00000
    262      -8.9660      1.00000
    263      -8.6545      1.00000
    264      -8.5720      1.00000
    265      -8.5619      1.00000
    266      -8.4380      1.00000
    267      -8.3959      1.00000
    268      -8.3920      1.00000
    269      -8.3447      1.00000
    270      -8.3145      1.00000
    271      -8.2950      1.00000
    272      -8.2879      1.00000
    273      -8.2313      1.00000
    274      -8.2096      1.00000
    275      -8.1903      1.00000
    276      -8.1663      1.00000
    277      -8.1599      1.00000
    278      -8.1197      1.00000
    279      -8.0681      1.00000
    280      -7.9710      1.00000
    281      -7.9523      1.00000
    282      -7.8927      1.00000
    283      -7.8257      1.00000
    284      -7.7415      1.00000
    285      -7.6298      1.00000
    286      -7.5644      1.00000
    287      -7.4672      1.00000
    288      -7.2543      1.00000
    289      -6.8943      1.00000
    290      -6.7053      1.00000
    291      -6.6919      1.00000
    292      -6.5113      1.00000
    293      -6.3697      1.00000
    294      -6.2710      1.00000
    295      -6.1420      1.00000
    296      -6.1239      1.00000
    297      -5.9199      1.00000
    298      -5.8832      1.00000
    299      -5.8700      1.00000
    300      -5.8506      1.00000
    301      -5.5355      1.00000
    302      -5.5221      1.00000
    303      -5.4564      1.00000
    304      -5.4510      1.00000
    305      -5.4419      1.00000
    306      -5.4330      1.00000
    307      -5.3980      1.00000
    308      -5.3953      1.00000
    309      -5.1978      1.00000
    310      -5.1649      1.00000
    311      -5.1180      1.00000
    312      -5.0931      1.00000
    313      -5.0453      1.00000
    314      -5.0388      1.00000
    315      -5.0316      1.00000
    316      -5.0246      1.00000
    317      -5.0212      1.00000
    318      -5.0114      1.00000
    319      -4.9985      1.00000
    320      -4.9864      1.00000
    321      -4.9757      1.00000
    322      -4.9697      1.00000
    323      -4.9592      1.00000
    324      -4.9544      1.00000
    325      -4.9487      1.00000
    326      -4.9400      1.00000
    327      -4.9375      1.00000
    328      -4.9353      1.00000
    329      -4.9244      1.00000
    330      -4.9200      1.00000
    331      -4.9070      1.00000
    332      -4.8986      1.00000
    333      -4.8984      1.00000
    334      -4.8752      1.00000
    335      -4.8735      1.00000
    336      -4.8686      1.00000
    337      -4.8602      1.00000
    338      -4.8531      1.00000
    339      -4.8484      1.00000
    340      -4.8410      1.00000
    341      -4.8384      1.00000
    342      -4.8192      1.00000
    343      -4.8066      1.00000
    344      -4.7975      1.00000
    345      -4.7726      1.00000
    346      -4.7601      1.00000
    347      -4.7451      1.00000
    348      -4.7416      1.00000
    349      -4.7337      1.00000
    350      -4.7178      1.00000
    351      -4.7022      1.00000
    352      -4.6898      1.00000
    353      -4.6713      1.00000
    354      -4.6537      1.00000
    355      -4.6429      1.00000
    356      -4.6312      1.00000
    357      -4.5898      1.00000
    358      -4.5775      1.00000
    359      -4.5125      1.00000
    360      -4.5064      1.00000
    361      -4.4940      1.00000
    362      -4.4812      1.00000
    363      -4.4633      1.00000
    364      -4.4567      1.00000
    365      -4.4336      1.00000
    366      -4.4273      1.00000
    367      -4.4253      1.00000
    368      -4.4226      1.00000
    369      -4.4138      1.00000
    370      -4.4015      1.00000
    371      -4.3970      1.00000
    372      -4.3912      1.00000
    373      -4.3850      1.00000
    374      -4.3792      1.00000
    375      -4.3712      1.00000
    376      -4.3673      1.00000
    377      -4.3632      1.00000
    378      -4.3492      1.00000
    379      -4.3439      1.00000
    380      -4.3411      1.00000
    381      -4.3339      1.00000
    382      -4.3184      1.00000
    383      -4.3111      1.00000
    384      -4.3068      1.00000
    385      -4.3029      1.00000
    386      -4.2991      1.00000
    387      -4.2939      1.00000
    388      -4.2718      1.00000
    389      -4.2645      1.00000
    390      -4.2574      1.00000
    391      -4.2456      1.00000
    392      -4.2341      1.00000
    393      -4.2156      1.00000
    394      -4.2083      1.00000
    395      -4.2000      1.00000
    396      -4.1841      1.00000
    397      -4.1781      1.00000
    398      -4.1466      1.00000
    399      -4.1308      1.00000
    400      -4.1114      1.00000
    401      -4.0990      1.00000
    402      -4.0925      1.00000
    403      -4.0777      1.00000
    404      -4.0668      1.00000
    405      -4.0566      1.00000
    406      -4.0527      1.00000
    407      -4.0490      1.00000
    408      -4.0288      1.00000
    409      -4.0223      1.00000
    410      -4.0173      1.00000
    411      -4.0031      1.00000
    412      -3.9953      1.00000
    413      -3.9880      1.00000
    414      -3.9746      1.00000
    415      -3.9607      1.00000
    416      -3.9509      1.00000
    417      -3.9432      1.00000
    418      -3.9357      1.00000
    419      -3.9156      1.00000
    420      -3.8798      1.00000
    421      -3.8626      1.00000
    422      -3.8443      1.00000
    423      -3.8336      1.00000
    424      -3.8226      1.00000
    425      -3.8191      1.00000
    426      -3.8031      1.00000
    427      -3.7908      1.00000
    428      -3.7495      1.00000
    429      -3.7424      1.00000
    430      -3.7343      1.00000
    431      -3.7305      1.00000
    432      -3.7091      1.00000
    433      -3.7065      1.00000
    434      -3.6936      1.00000
    435      -3.6876      1.00000
    436      -3.6784      1.00000
    437      -3.6590      1.00000
    438      -3.5866      1.00000
    439      -3.5658      1.00000
    440      -3.5444      1.00000
    441      -3.5416      1.00000
    442      -3.5277      1.00000
    443      -3.5211      1.00000
    444      -3.5118      1.00000
    445      -3.5098      1.00000
    446      -3.4948      1.00000
    447      -3.4861      1.00000
    448      -3.4672      1.00000
    449      -3.4603      1.00000
    450      -3.4490      1.00000
    451      -3.4422      1.00000
    452      -3.4033      1.00000
    453      -3.3934      1.00000
    454      -3.3829      1.00000
    455      -3.3808      1.00000
    456      -3.3667      1.00000
    457      -3.3440      1.00000
    458      -3.3279      1.00000
    459      -3.3071      1.00000
    460      -3.2905      1.00000
    461      -3.2690      1.00000
    462      -3.2425      1.00000
    463      -3.2301      1.00000
    464      -3.2177      1.00000
    465      -3.1937      1.00000
    466      -3.1760      1.00000
    467      -3.1664      1.00000
    468      -3.1463      1.00000
    469      -3.1213      1.00000
    470      -3.1167      1.00000
    471      -3.0983      1.00000
    472      -3.0928      1.00000
    473      -3.0822      1.00000
    474      -3.0751      1.00000
    475      -3.0717      1.00000
    476      -3.0607      1.00000
    477      -3.0550      1.00000
    478      -3.0438      1.00000
    479      -3.0263      1.00000
    480      -3.0196      1.00000
    481      -3.0097      1.00000
    482      -3.0005      1.00000
    483      -2.9929      1.00000
    484      -2.9775      1.00000
    485      -2.9699      1.00000
    486      -2.9635      1.00000
    487      -2.9512      1.00000
    488      -2.9472      1.00000
    489      -2.9247      1.00000
    490      -2.9073      1.00000
    491      -2.8967      1.00000
    492      -2.8869      1.00000
    493      -2.8542      1.00000
    494      -2.8377      1.00000
    495      -2.8255      1.00000
    496      -2.8142      1.00000
    497      -2.8030      1.00000
    498      -2.7824      1.00000
    499      -2.7754      1.00000
    500      -2.7486      1.00000
    501      -2.7397      1.00000
    502      -2.7301      1.00000
    503      -2.7128      1.00000
    504      -2.7089      1.00000
    505      -2.7026      1.00000
    506      -2.6890      1.00000
    507      -2.6822      1.00000
    508      -2.6804      1.00000
    509      -2.6753      1.00000
    510      -2.6704      1.00000
    511      -2.6617      1.00000
    512      -2.6562      1.00000
    513      -2.6487      1.00000
    514      -2.6348      1.00000
    515      -2.6282      1.00000
    516      -2.6244      1.00000
    517      -2.6198      1.00000
    518      -2.6116      1.00000
    519      -2.6097      1.00000
    520      -2.6039      1.00000
    521      -2.6013      1.00000
    522      -2.5911      1.00000
    523      -2.5728      1.00000
    524      -2.5601      1.00000
    525      -2.5505      1.00000
    526      -2.5345      1.00000
    527      -2.5267      1.00000
    528      -2.5168      1.00000
    529      -2.5087      1.00000
    530      -2.5031      1.00000
    531      -2.4898      1.00000
    532      -2.4867      1.00000
    533      -2.4828      1.00000
    534      -2.4705      1.00000
    535      -2.4657      1.00000
    536      -2.4545      1.00000
    537      -2.4500      1.00000
    538      -2.4471      1.00000
    539      -2.4384      1.00000
    540      -2.4317      1.00000
    541      -2.4179      1.00000
    542      -2.4104      1.00000
    543      -2.4001      1.00000
    544      -2.3960      1.00000
    545      -2.3871      1.00000
    546      -2.3824      1.00000
    547      -2.3721      1.00000
    548      -2.3591      1.00000
    549      -2.3453      1.00000
    550      -2.3424      1.00000
    551      -2.3332      1.00000
    552      -2.3189      1.00000
    553      -2.3177      1.00000
    554      -2.3070      1.00000
    555      -2.3032      1.00000
    556      -2.2992      1.00000
    557      -2.2852      1.00000
    558      -2.2799      1.00000
    559      -2.2600      1.00000
    560      -2.2342      1.00000
    561      -2.2223      1.00000
    562      -2.2215      1.00000
    563      -2.2175      1.00000
    564      -2.2128      1.00000
    565      -2.1939      1.00000
    566      -2.1935      1.00000
    567      -2.1750      1.00000
    568      -2.1461      1.00000
    569      -2.1384      1.00000
    570      -2.1274      1.00000
    571      -2.1228      1.00000
    572      -2.1137      1.00000
    573      -2.1076      1.00000
    574      -2.0986      1.00000
    575      -2.0904      1.00000
    576      -2.0844      1.00000
    577      -2.0773      1.00000
    578      -2.0586      1.00000
    579      -2.0518      1.00000
    580      -2.0483      1.00000
    581      -2.0326      1.00000
    582      -2.0204      1.00000
    583      -2.0137      1.00000
    584      -1.9870      1.00000
    585      -1.9788      1.00000
    586      -1.9512      1.00000
    587      -1.9219      1.00000
    588      -1.8872      1.00000
    589      -1.8608      1.00000
    590      -1.8569      1.00000
    591      -1.8262      1.00000
    592      -1.8208      1.00000
    593      -1.8033      1.00000
    594      -1.7953      1.00000
    595      -1.7848      1.00000
    596      -1.7397      1.00000
    597      -1.7217      1.00000
    598      -1.6402      1.00000
    599      -1.5458      1.00000
    600      -1.4497      1.00000
    601      -1.0303      0.00000
    602      -0.9965      0.00000
    603      -0.7953      0.00000
    604      -0.7250      0.00000
    605      -0.6473      0.00000
    606      -0.5563      0.00000
    607      -0.5392      0.00000
    608      -0.4955      0.00000
    609      -0.4155      0.00000
    610      -0.3468      0.00000
    611      -0.2667      0.00000
    612      -0.1560      0.00000
    613       0.5835      0.00000
    614       0.5946      0.00000
    615       0.5974      0.00000
    616       0.6078      0.00000
    617       0.6449      0.00000
    618       0.6548      0.00000
    619       0.6643      0.00000
    620       0.6727      0.00000
    621       0.6788      0.00000
    622       0.6873      0.00000
    623       0.6914      0.00000
    624       0.6937      0.00000
    625       0.7039      0.00000
    626       0.7095      0.00000
    627       0.7142      0.00000
    628       0.7206      0.00000
    629       0.7230      0.00000
    630       0.7357      0.00000
    631       0.7406      0.00000
    632       0.7415      0.00000
    633       0.7476      0.00000
    634       0.7490      0.00000
    635       0.7535      0.00000
    636       0.7591      0.00000
    637       0.7621      0.00000
    638       0.7660      0.00000
    639       0.7709      0.00000
    640       0.7734      0.00000
    641       0.7749      0.00000
    642       0.7762      0.00000
    643       0.7818      0.00000
    644       0.7888      0.00000
    645       0.7927      0.00000
    646       0.7941      0.00000
    647       0.7962      0.00000
    648       0.7982      0.00000
    649       0.8013      0.00000
    650       0.8026      0.00000
    651       0.8055      0.00000
    652       0.8062      0.00000
    653       0.8103      0.00000
    654       0.8135      0.00000
    655       0.8162      0.00000
    656       0.8176      0.00000
    657       0.8184      0.00000
    658       0.8198      0.00000
    659       0.8278      0.00000
    660       0.8298      0.00000
    661       0.8319      0.00000
    662       0.8364      0.00000
    663       0.8403      0.00000
    664       0.8447      0.00000
    665       0.8454      0.00000
    666       0.8467      0.00000
    667       0.8498      0.00000
    668       0.8521      0.00000
    669       0.8528      0.00000
    670       0.8565      0.00000
    671       0.8588      0.00000
    672       0.8619      0.00000
    673       0.8658      0.00000
    674       0.8687      0.00000
    675       0.8713      0.00000
    676       0.8742      0.00000
    677       0.8750      0.00000
    678       0.8773      0.00000
    679       0.8826      0.00000
    680       0.8847      0.00000
    681       0.8890      0.00000
    682       0.8958      0.00000
    683       0.9000      0.00000
    684       0.9070      0.00000
    685       0.9131      0.00000
    686       0.9135      0.00000
    687       0.9159      0.00000
    688       0.9184      0.00000
    689       0.9225      0.00000
    690       0.9273      0.00000
    691       0.9289      0.00000
    692       0.9317      0.00000
    693       0.9350      0.00000
    694       0.9408      0.00000
    695       0.9412      0.00000
    696       0.9442      0.00000
    697       0.9489      0.00000
    698       0.9536      0.00000
    699       0.9560      0.00000
    700       0.9609      0.00000
    701       0.9622      0.00000
    702       0.9671      0.00000
    703       0.9692      0.00000
    704       0.9703      0.00000
    705       0.9757      0.00000
    706       0.9795      0.00000
    707       0.9857      0.00000
    708       0.9863      0.00000
    709       0.9899      0.00000
    710       0.9927      0.00000
    711       0.9960      0.00000
    712       0.9962      0.00000
    713       1.0016      0.00000
    714       1.0038      0.00000
    715       1.0056      0.00000
    716       1.0085      0.00000
    717       1.0117      0.00000
    718       1.0134      0.00000
    719       1.0180      0.00000
    720       1.0223      0.00000
    721       1.0234      0.00000
    722       1.0257      0.00000
    723       1.0297      0.00000
    724       1.0345      0.00000
    725       1.0371      0.00000
    726       1.0385      0.00000
    727       1.0431      0.00000
    728       1.0445      0.00000
    729       1.0471      0.00000
    730       1.0488      0.00000
    731       1.0534      0.00000
    732       1.0540      0.00000
    733       1.0586      0.00000
    734       1.0643      0.00000
    735       1.0672      0.00000
    736       1.0696      0.00000
    737       1.0751      0.00000
    738       1.0789      0.00000
    739       1.0807      0.00000
    740       1.0828      0.00000
    741       1.0866      0.00000
    742       1.0898      0.00000
    743       1.0922      0.00000
    744       1.0963      0.00000
    745       1.0998      0.00000
    746       1.1039      0.00000
    747       1.1103      0.00000
    748       1.1112      0.00000
    749       1.1167      0.00000
    750       1.1185      0.00000
    751       1.1209      0.00000
    752       1.1237      0.00000
    753       1.1279      0.00000
    754       1.1301      0.00000
    755       1.1347      0.00000
    756       1.1367      0.00000
    757       1.1423      0.00000
    758       1.1437      0.00000
    759       1.1498      0.00000
    760       1.1555      0.00000
    761       1.1582      0.00000
    762       1.1656      0.00000
    763       1.1685      0.00000
    764       1.1778      0.00000
    765       1.1909      0.00000
    766       1.2045      0.00000
    767       1.2052      0.00000
    768       1.2204      0.00000
 Fermi energy:        -1.1968365994

 spin component 2

 k-point     1 :       0.0000    0.0000    0.0000
  band No.  band energies     occupation 
      1     -35.3561      1.00000
      2     -35.3200      1.00000
      3     -35.3032      1.00000
      4     -35.2981      1.00000
      5     -35.2808      1.00000
      6     -35.2773      1.00000
      7     -35.2714      1.00000
      8     -35.2533      1.00000
      9     -35.2455      1.00000
     10     -35.2380      1.00000
     11     -35.2331      1.00000
     12     -35.2236      1.00000
     13     -35.2162      1.00000
     14     -35.2125      1.00000
     15     -35.1993      1.00000
     16     -35.1965      1.00000
     17     -35.1911      1.00000
     18     -35.1904      1.00000
     19     -35.1865      1.00000
     20     -35.1769      1.00000
     21     -35.1730      1.00000
     22     -35.1686      1.00000
     23     -35.1616      1.00000
     24     -35.1545      1.00000
     25     -35.1438      1.00000
     26     -35.1431      1.00000
     27     -35.1408      1.00000
     28     -35.1376      1.00000
     29     -35.1308      1.00000
     30     -35.1295      1.00000
     31     -35.1260      1.00000
     32     -35.1145      1.00000
     33     -24.7091      1.00000
     34     -24.5623      1.00000
     35     -24.3377      1.00000
     36     -23.2363      1.00000
     37     -22.7060      1.00000
     38     -22.6643      1.00000
     39     -22.0296      1.00000
     40     -21.8965      1.00000
     41     -21.8467      1.00000
     42     -21.5581      1.00000
     43     -21.5456      1.00000
     44     -21.3105      1.00000
     45     -20.7531      1.00000
     46     -20.7313      1.00000
     47     -20.5265      1.00000
     48     -20.5108      1.00000
     49     -20.5045      1.00000
     50     -20.4663      1.00000
     51     -20.4359      1.00000
     52     -20.4087      1.00000
     53     -20.3822      1.00000
     54     -20.3337      1.00000
     55     -20.2747      1.00000
     56     -20.2633      1.00000
     57     -20.2552      1.00000
     58     -20.2366      1.00000
     59     -20.2347      1.00000
     60     -20.1900      1.00000
     61     -20.1832      1.00000
     62     -20.1828      1.00000
     63     -20.1162      1.00000
     64     -20.0908      1.00000
     65     -20.0840      1.00000
     66     -20.0737      1.00000
     67     -20.0702      1.00000
     68     -20.0540      1.00000
     69     -20.0464      1.00000
     70     -20.0206      1.00000
     71     -20.0107      1.00000
     72     -19.9856      1.00000
     73     -19.9837      1.00000
     74     -19.9696      1.00000
     75     -19.9557      1.00000
     76     -19.9403      1.00000
     77     -19.9355      1.00000
     78     -19.9284      1.00000
     79     -19.9043      1.00000
     80     -19.8900      1.00000
     81     -19.8468      1.00000
     82     -19.8302      1.00000
     83     -19.8002      1.00000
     84     -19.7941      1.00000
     85     -19.7584      1.00000
     86     -19.7235      1.00000
     87     -19.6057      1.00000
     88     -19.6040      1.00000
     89     -19.5510      1.00000
     90     -19.5463      1.00000
     91     -19.5216      1.00000
     92     -19.5086      1.00000
     93     -19.4867      1.00000
     94     -19.4483      1.00000
     95     -19.3843      1.00000
     96     -19.3559      1.00000
     97     -19.3166      1.00000
     98     -19.3052      1.00000
     99     -19.2821      1.00000
    100     -19.2516      1.00000
    101     -19.2318      1.00000
    102     -19.0764      1.00000
    103     -19.0347      1.00000
    104     -19.0297      1.00000
    105     -19.0228      1.00000
    106     -19.0024      1.00000
    107     -18.9825      1.00000
    108     -18.9665      1.00000
    109     -18.9504      1.00000
    110     -18.9393      1.00000
    111     -18.9253      1.00000
    112     -18.9109      1.00000
    113     -18.8702      1.00000
    114     -18.8596      1.00000
    115     -18.8111      1.00000
    116     -18.7421      1.00000
    117     -18.6791      1.00000
    118     -18.6540      1.00000
    119     -18.6181      1.00000
    120     -18.6064      1.00000
    121     -18.5494      1.00000
    122     -18.5252      1.00000
    123     -18.4953      1.00000
    124     -18.2858      1.00000
    125     -18.2504      1.00000
    126     -18.1908      1.00000
    127     -18.1843      1.00000
    128     -18.1769      1.00000
    129     -18.1656      1.00000
    130     -18.1549      1.00000
    131     -18.1431      1.00000
    132     -18.1256      1.00000
    133     -18.0640      1.00000
    134     -18.0579      1.00000
    135     -18.0320      1.00000
    136     -17.9890      1.00000
    137     -17.9571      1.00000
    138     -17.8774      1.00000
    139     -17.7956      1.00000
    140     -17.7912      1.00000
    141     -17.7858      1.00000
    142     -17.7751      1.00000
    143     -17.7490      1.00000
    144     -17.7150      1.00000
    145     -17.7083      1.00000
    146     -17.6838      1.00000
    147     -17.6728      1.00000
    148     -17.6717      1.00000
    149     -17.6618      1.00000
    150     -17.6557      1.00000
    151     -17.6547      1.00000
    152     -17.6441      1.00000
    153     -17.6396      1.00000
    154     -17.6368      1.00000
    155     -17.6285      1.00000
    156     -17.5669      1.00000
    157     -17.5564      1.00000
    158     -17.5478      1.00000
    159     -17.5448      1.00000
    160     -17.5428      1.00000
    161     -17.5309      1.00000
    162     -17.5292      1.00000
    163     -17.5249      1.00000
    164     -17.5092      1.00000
    165     -17.4652      1.00000
    166     -17.4507      1.00000
    167     -17.4138      1.00000
    168     -17.3919      1.00000
    169     -17.3306      1.00000
    170     -17.3290      1.00000
    171     -17.2682      1.00000
    172     -17.2477      1.00000
    173     -17.1869      1.00000
    174     -17.1725      1.00000
    175     -17.1435      1.00000
    176     -17.1289      1.00000
    177     -17.0875      1.00000
    178     -16.9687      1.00000
    179     -16.9572      1.00000
    180     -16.8593      1.00000
    181     -16.5584      1.00000
    182     -16.5052      1.00000
    183     -16.4555      1.00000
    184     -16.3917      1.00000
    185     -16.3776      1.00000
    186     -16.3742      1.00000
    187     -16.3520      1.00000
    188     -16.3442      1.00000
    189     -16.2853      1.00000
    190     -16.2585      1.00000
    191     -16.2417      1.00000
    192     -16.2334      1.00000
    193     -16.1965      1.00000
    194     -16.0590      1.00000
    195     -16.0445      1.00000
    196     -16.0392      1.00000
    197     -16.0260      1.00000
    198     -16.0214      1.00000
    199     -16.0111      1.00000
    200     -16.0040      1.00000
    201     -15.9676      1.00000
    202     -15.9249      1.00000
    203     -15.8974      1.00000
    204     -15.7656      1.00000
    205     -15.7115      1.00000
    206     -15.6874      1.00000
    207     -15.6814      1.00000
    208     -15.6508      1.00000
    209     -15.6269      1.00000
    210     -15.6096      1.00000
    211     -15.5601      1.00000
    212     -15.5526      1.00000
    213     -15.5403      1.00000
    214     -15.4976      1.00000
    215     -15.4743      1.00000
    216     -15.4592      1.00000
    217     -15.4554      1.00000
    218     -15.4461      1.00000
    219     -15.4399      1.00000
    220     -15.4367      1.00000
    221     -15.3732      1.00000
    222     -15.1124      1.00000
    223     -15.0852      1.00000
    224     -15.0775      1.00000
    225     -15.0372      1.00000
    226     -15.0225      1.00000
    227     -15.0098      1.00000
    228     -15.0083      1.00000
    229     -15.0068      1.00000
    230     -15.0035      1.00000
    231     -15.0011      1.00000
    232     -14.9995      1.00000
    233     -14.9800      1.00000
    234     -14.9610      1.00000
    235     -14.9373      1.00000
    236     -14.9141      1.00000
    237     -14.8586      1.00000
    238     -14.8469      1.00000
    239     -14.7972      1.00000
    240     -14.7849      1.00000
    241     -14.6160      1.00000
    242     -14.5853      1.00000
    243     -14.5297      1.00000
    244     -14.3210      1.00000
    245     -14.2778      1.00000
    246     -14.1977      1.00000
    247     -12.8632      1.00000
    248     -12.0075      1.00000
    249     -11.6762      1.00000
    250     -11.4644      1.00000
    251     -11.0968      1.00000
    252     -10.4464      1.00000
    253     -10.3379      1.00000
    254      -9.9812      1.00000
    255      -9.9353      1.00000
    256      -9.8460      1.00000
    257      -9.5689      1.00000
    258      -9.4215      1.00000
    259      -9.3449      1.00000
    260      -9.1828      1.00000
    261      -9.0677      1.00000
    262      -8.8789      1.00000
    263      -8.6518      1.00000
    264      -8.5692      1.00000
    265      -8.5592      1.00000
    266      -8.4357      1.00000
    267      -8.3956      1.00000
    268      -8.3891      1.00000
    269      -8.3409      1.00000
    270      -8.3040      1.00000
    271      -8.2907      1.00000
    272      -8.2830      1.00000
    273      -8.2263      1.00000
    274      -8.2029      1.00000
    275      -8.1811      1.00000
    276      -8.1612      1.00000
    277      -8.1561      1.00000
    278      -8.1166      1.00000
    279      -8.0644      1.00000
    280      -7.9673      1.00000
    281      -7.9392      1.00000
    282      -7.8906      1.00000
    283      -7.8227      1.00000
    284      -7.7382      1.00000
    285      -7.6215      1.00000
    286      -7.5579      1.00000
    287      -7.4624      1.00000
    288      -7.2054      1.00000
    289      -6.8780      1.00000
    290      -6.6908      1.00000
    291      -6.6905      1.00000
    292      -6.5097      1.00000
    293      -6.3585      1.00000
    294      -6.2643      1.00000
    295      -6.1422      1.00000
    296      -6.1237      1.00000
    297      -5.9154      1.00000
    298      -5.8636      1.00000
    299      -5.8522      1.00000
    300      -5.7063      1.00000
    301      -5.5315      1.00000
    302      -5.5201      1.00000
    303      -5.4325      1.00000
    304      -5.2691      1.00000
    305      -5.2516      1.00000
    306      -5.2226      1.00000
    307      -5.1665      1.00000
    308      -5.1434      1.00000
    309      -5.0962      1.00000
    310      -5.0908      1.00000
    311      -5.0610      1.00000
    312      -5.0077      1.00000
    313      -4.8940      1.00000
    314      -4.8824      1.00000
    315      -4.8342      1.00000
    316      -4.8146      1.00000
    317      -4.7988      1.00000
    318      -4.7966      1.00000
    319      -4.7831      1.00000
    320      -4.7807      1.00000
    321      -4.7506      1.00000
    322      -4.7481      1.00000
    323      -4.7253      1.00000
    324      -4.7186      1.00000
    325      -4.7135      1.00000
    326      -4.6954      1.00000
    327      -4.6845      1.00000
    328      -4.6613      1.00000
    329      -4.6502      1.00000
    330      -4.6473      1.00000
    331      -4.6162      1.00000
    332      -4.6095      1.00000
    333      -4.5536      1.00000
    334      -4.5398      1.00000
    335      -4.5176      1.00000
    336      -4.5049      1.00000
    337      -4.4711      1.00000
    338      -4.4670      1.00000
    339      -4.4575      1.00000
    340      -4.4535      1.00000
    341      -4.4445      1.00000
    342      -4.4379      1.00000
    343      -4.4296      1.00000
    344      -4.4140      1.00000
    345      -4.4031      1.00000
    346      -4.4022      1.00000
    347      -4.3872      1.00000
    348      -4.3794      1.00000
    349      -4.3779      1.00000
    350      -4.3667      1.00000
    351      -4.3564      1.00000
    352      -4.3469      1.00000
    353      -4.3276      1.00000
    354      -4.3160      1.00000
    355      -4.3010      1.00000
    356      -4.2924      1.00000
    357      -4.2802      1.00000
    358      -4.2579      1.00000
    359      -4.2519      1.00000
    360      -4.2354      1.00000
    361      -4.2329      1.00000
    362      -4.2120      1.00000
    363      -4.2084      1.00000
    364      -4.2018      1.00000
    365      -4.1852      1.00000
    366      -4.1814      1.00000
    367      -4.1601      1.00000
    368      -4.1542      1.00000
    369      -4.1239      1.00000
    370      -4.1110      1.00000
    371      -4.1053      1.00000
    372      -4.0741      1.00000
    373      -4.0706      1.00000
    374      -4.0514      1.00000
    375      -4.0418      1.00000
    376      -4.0379      1.00000
    377      -4.0315      1.00000
    378      -4.0239      1.00000
    379      -4.0206      1.00000
    380      -4.0036      1.00000
    381      -3.9989      1.00000
    382      -3.9820      1.00000
    383      -3.9602      1.00000
    384      -3.9504      1.00000
    385      -3.9330      1.00000
    386      -3.9259      1.00000
    387      -3.8503      1.00000
    388      -3.8336      1.00000
    389      -3.8260      1.00000
    390      -3.8022      1.00000
    391      -3.7965      1.00000
    392      -3.7876      1.00000
    393      -3.7819      1.00000
    394      -3.7601      1.00000
    395      -3.7340      1.00000
    396      -3.7158      1.00000
    397      -3.6178      1.00000
    398      -3.5844      1.00000
    399      -3.5672      1.00000
    400      -3.5492      1.00000
    401      -3.5465      1.00000
    402      -3.5383      1.00000
    403      -3.5355      1.00000
    404      -3.4993      1.00000
    405      -3.4910      1.00000
    406      -3.4802      1.00000
    407      -3.4683      1.00000
    408      -3.4336      1.00000
    409      -3.4160      1.00000
    410      -3.4009      1.00000
    411      -3.3882      1.00000
    412      -3.3817      1.00000
    413      -3.3575      1.00000
    414      -3.3519      1.00000
    415      -3.3394      1.00000
    416      -3.3361      1.00000
    417      -3.3227      1.00000
    418      -3.2878      1.00000
    419      -3.2682      1.00000
    420      -3.2390      1.00000
    421      -3.2320      1.00000
    422      -3.2280      1.00000
    423      -3.1928      1.00000
    424      -3.1892      1.00000
    425      -3.1562      1.00000
    426      -3.1283      1.00000
    427      -3.1089      1.00000
    428      -3.1033      1.00000
    429      -3.1013      1.00000
    430      -3.0923      1.00000
    431      -3.0855      1.00000
    432      -3.0730      1.00000
    433      -3.0677      1.00000
    434      -3.0664      1.00000
    435      -3.0546      1.00000
    436      -3.0457      1.00000
    437      -3.0381      1.00000
    438      -3.0131      1.00000
    439      -3.0089      1.00000
    440      -3.0044      1.00000
    441      -2.9938      1.00000
    442      -2.9751      1.00000
    443      -2.9661      1.00000
    444      -2.9215      1.00000
    445      -2.8962      1.00000
    446      -2.8751      1.00000
    447      -2.8708      1.00000
    448      -2.8530      1.00000
    449      -2.8488      1.00000
    450      -2.8297      1.00000
    451      -2.8168      1.00000
    452      -2.8061      1.00000
    453      -2.7954      1.00000
    454      -2.7871      1.00000
    455      -2.7732      1.00000
    456      -2.7697      1.00000
    457      -2.7620      1.00000
    458      -2.7554      1.00000
    459      -2.7501      1.00000
    460      -2.7306      1.00000
    461      -2.7191      1.00000
    462      -2.7051      1.00000
    463      -2.6982      1.00000
    464      -2.6892      1.00000
    465      -2.6766      1.00000
    466      -2.6739      1.00000
    467      -2.6680      1.00000
    468      -2.6464      1.00000
    469      -2.6351      1.00000
    470      -2.6277      1.00000
    471      -2.5963      1.00000
    472      -2.5909      1.00000
    473      -2.5868      1.00000
    474      -2.5813      1.00000
    475      -2.5712      1.00000
    476      -2.5669      1.00000
    477      -2.5539      1.00000
    478      -2.5515      1.00000
    479      -2.5474      1.00000
    480      -2.5454      1.00000
    481      -2.5321      1.00000
    482      -2.5314      1.00000
    483      -2.5241      1.00000
    484      -2.5190      1.00000
    485      -2.5040      1.00000
    486      -2.4975      1.00000
    487      -2.4917      1.00000
    488      -2.4857      1.00000
    489      -2.4716      1.00000
    490      -2.4690      1.00000
    491      -2.4557      1.00000
    492      -2.4473      1.00000
    493      -2.4417      1.00000
    494      -2.4293      1.00000
    495      -2.4262      1.00000
    496      -2.4199      1.00000
    497      -2.4131      1.00000
    498      -2.4046      1.00000
    499      -2.3944      1.00000
    500      -2.3901      1.00000
    501      -2.3740      1.00000
    502      -2.3648      1.00000
    503      -2.3586      1.00000
    504      -2.3528      1.00000
    505      -2.3439      1.00000
    506      -2.3302      1.00000
    507      -2.3080      1.00000
    508      -2.3012      1.00000
    509      -2.2864      1.00000
    510      -2.2783      1.00000
    511      -2.2677      1.00000
    512      -2.2590      1.00000
    513      -2.2536      1.00000
    514      -2.2440      1.00000
    515      -2.2400      1.00000
    516      -2.2246      1.00000
    517      -2.2071      1.00000
    518      -2.2039      1.00000
    519      -2.1940      1.00000
    520      -2.1900      1.00000
    521      -2.1787      1.00000
    522      -2.1743      1.00000
    523      -2.1667      1.00000
    524      -2.1635      1.00000
    525      -2.1437      1.00000
    526      -2.1415      1.00000
    527      -2.1327      1.00000
    528      -2.1224      1.00000
    529      -2.1191      1.00000
    530      -2.1058      1.00000
    531      -2.0933      1.00000
    532      -2.0884      1.00000
    533      -2.0833      1.00000
    534      -2.0781      1.00000
    535      -2.0693      1.00000
    536      -2.0675      1.00000
    537      -2.0525      1.00000
    538      -2.0488      1.00000
    539      -2.0385      1.00000
    540      -2.0315      1.00000
    541      -2.0192      1.00000
    542      -2.0178      1.00000
    543      -2.0062      1.00000
    544      -1.9964      1.00000
    545      -1.9889      1.00000
    546      -1.9702      1.00000
    547      -1.9577      1.00000
    548      -1.9504      1.00000
    549      -1.9449      1.00000
    550      -1.9328      1.00000
    551      -1.9137      1.00000
    552      -1.9095      1.00000
    553      -1.9048      1.00000
    554      -1.8747      1.00000
    555      -1.8290      1.00000
    556      -1.8195      1.00000
    557      -1.8077      1.00000
    558      -1.8019      1.00000
    559      -1.7711      1.00000
    560      -1.7495      1.00000
    561      -1.7348      1.00000
    562      -1.7297      1.00000
    563      -1.7176      1.00000
    564      -1.6967      1.00000
    565      -1.6814      1.00000
    566      -1.6362      1.00000
    567      -1.6182      1.00000
    568      -1.2208      0.75102
    569      -1.1646      0.18064
    570      -1.1416      0.05904
    571      -1.0985      0.00271
    572      -1.0963      0.00222
    573      -1.0908      0.00136
    574      -1.0883      0.00107
    575      -1.0813      0.00054
    576      -1.0803      0.00049
    577      -1.0766      0.00034
    578      -1.0745      0.00027
    579      -1.0719      0.00021
    580      -1.0596      0.00005
    581      -1.0535      0.00003
    582      -1.0505      0.00002
    583      -1.0372      0.00000
    584      -1.0323      0.00000
    585      -1.0296      0.00000
    586      -1.0039      0.00000
    587      -0.9963      0.00000
    588      -0.9686      0.00000
    589      -0.9637      0.00000
    590      -0.9599      0.00000
    591      -0.9564      0.00000
    592      -0.9515      0.00000
    593      -0.9441      0.00000
    594      -0.9412      0.00000
    595      -0.9253      0.00000
    596      -0.9051      0.00000
    597      -0.8502      0.00000
    598      -0.8473      0.00000
    599      -0.8335      0.00000
    600      -0.8260      0.00000
    601      -0.8119      0.00000
    602      -0.7919      0.00000
    603      -0.7906      0.00000
    604      -0.7276      0.00000
    605      -0.6358      0.00000
    606      -0.5560      0.00000
    607      -0.5389      0.00000
    608      -0.4846      0.00000
    609      -0.4111      0.00000
    610      -0.3427      0.00000
    611      -0.2621      0.00000
    612      -0.1458      0.00000
    613       0.5832      0.00000
    614       0.5975      0.00000
    615       0.5986      0.00000
    616       0.6122      0.00000
    617       0.6400      0.00000
    618       0.6429      0.00000
    619       0.6596      0.00000
    620       0.6682      0.00000
    621       0.6763      0.00000
    622       0.6819      0.00000
    623       0.6910      0.00000
    624       0.6963      0.00000
    625       0.6975      0.00000
    626       0.7085      0.00000
    627       0.7127      0.00000
    628       0.7148      0.00000
    629       0.7204      0.00000
    630       0.7229      0.00000
    631       0.7260      0.00000
    632       0.7297      0.00000
    633       0.7328      0.00000
    634       0.7384      0.00000
    635       0.7401      0.00000
    636       0.7406      0.00000
    637       0.7458      0.00000
    638       0.7484      0.00000
    639       0.7509      0.00000
    640       0.7600      0.00000
    641       0.7617      0.00000
    642       0.7640      0.00000
    643       0.7660      0.00000
    644       0.7715      0.00000
    645       0.7733      0.00000
    646       0.7790      0.00000
    647       0.7818      0.00000
    648       0.7846      0.00000
    649       0.7859      0.00000
    650       0.7905      0.00000
    651       0.7954      0.00000
    652       0.7970      0.00000
    653       0.7992      0.00000
    654       0.8001      0.00000
    655       0.8058      0.00000
    656       0.8071      0.00000
    657       0.8103      0.00000
    658       0.8130      0.00000
    659       0.8173      0.00000
    660       0.8184      0.00000
    661       0.8201      0.00000
    662       0.8224      0.00000
    663       0.8276      0.00000
    664       0.8282      0.00000
    665       0.8360      0.00000
    666       0.8401      0.00000
    667       0.8417      0.00000
    668       0.8446      0.00000
    669       0.8481      0.00000
    670       0.8500      0.00000
    671       0.8526      0.00000
    672       0.8540      0.00000
    673       0.8579      0.00000
    674       0.8607      0.00000
    675       0.8643      0.00000
    676       0.8649      0.00000
    677       0.8687      0.00000
    678       0.8740      0.00000
    679       0.8759      0.00000
    680       0.8796      0.00000
    681       0.8845      0.00000
    682       0.8866      0.00000
    683       0.8920      0.00000
    684       0.8945      0.00000
    685       0.9009      0.00000
    686       0.9063      0.00000
    687       0.9070      0.00000
    688       0.9099      0.00000
    689       0.9135      0.00000
    690       0.9154      0.00000
    691       0.9200      0.00000
    692       0.9251      0.00000
    693       0.9289      0.00000
    694       0.9332      0.00000
    695       0.9336      0.00000
    696       0.9392      0.00000
    697       0.9469      0.00000
    698       0.9494      0.00000
    699       0.9524      0.00000
    700       0.9565      0.00000
    701       0.9578      0.00000
    702       0.9629      0.00000
    703       0.9646      0.00000
    704       0.9667      0.00000
    705       0.9688      0.00000
    706       0.9716      0.00000
    707       0.9747      0.00000
    708       0.9794      0.00000
    709       0.9809      0.00000
    710       0.9844      0.00000
    711       0.9892      0.00000
    712       0.9902      0.00000
    713       0.9925      0.00000
    714       1.0005      0.00000
    715       1.0046      0.00000
    716       1.0066      0.00000
    717       1.0108      0.00000
    718       1.0135      0.00000
    719       1.0182      0.00000
    720       1.0185      0.00000
    721       1.0216      0.00000
    722       1.0245      0.00000
    723       1.0303      0.00000
    724       1.0333      0.00000
    725       1.0357      0.00000
    726       1.0395      0.00000
    727       1.0420      0.00000
    728       1.0472      0.00000
    729       1.0488      0.00000
    730       1.0529      0.00000
    731       1.0549      0.00000
    732       1.0599      0.00000
    733       1.0618      0.00000
    734       1.0641      0.00000
    735       1.0680      0.00000
    736       1.0720      0.00000
    737       1.0730      0.00000
    738       1.0763      0.00000
    739       1.0805      0.00000
    740       1.0834      0.00000
    741       1.0853      0.00000
    742       1.0864      0.00000
    743       1.0887      0.00000
    744       1.0927      0.00000
    745       1.0949      0.00000
    746       1.0996      0.00000
    747       1.1009      0.00000
    748       1.1059      0.00000
    749       1.1106      0.00000
    750       1.1137      0.00000
    751       1.1171      0.00000
    752       1.1218      0.00000
    753       1.1234      0.00000
    754       1.1287      0.00000
    755       1.1312      0.00000
    756       1.1384      0.00000
    757       1.1435      0.00000
    758       1.1486      0.00000
    759       1.1535      0.00000
    760       1.1562      0.00000
    761       1.1595      0.00000
    762       1.1629      0.00000
    763       1.1753      0.00000
    764       1.1786      0.00000
    765       1.1852      0.00000
    766       1.1908      0.00000
    767       1.2059      0.00000
    768       1.2297      0.00000


--------------------------------------------------------------------------------------------------------


 soft charge-density along one line, spin component           1
         0         1         2         3         4         5         6         7         8         9
 total charge-density along one line
 
 soft charge-density along one line, spin component           2
         0         1         2         3         4         5         6         7         8         9
 total charge-density along one line
 
 pseudopotential strength for first ion, spin component:           1
 24.577 -18.794   0.008   0.048   0.004  -0.006  -0.031  -0.003
-18.794   9.874  -0.004  -0.023  -0.002   0.003   0.018   0.002
  0.008  -0.004  13.759  -0.002   0.002  -6.321   0.002  -0.003
  0.048  -0.023  -0.002  13.737  -0.002   0.002  -6.284   0.003
  0.004  -0.002   0.002  -0.002  13.764  -0.003   0.003  -6.325
 -0.006   0.003  -6.321   0.002  -0.003  13.931  -0.002   0.003
 -0.031   0.018   0.002  -6.284   0.003  -0.002  13.892  -0.002
 -0.003   0.002  -0.003   0.003  -6.325   0.003  -0.002  13.935
  0.002  -0.000   0.001  -0.000   0.005  -0.001   0.000  -0.002
 -0.001   0.000   0.014   0.003  -0.000  -0.008  -0.001   0.000
 -0.010   0.002  -0.002   0.019  -0.001   0.001  -0.007   0.000
 -0.002   0.000  -0.000   0.001   0.013   0.000  -0.001  -0.008
  0.002  -0.000  -0.000  -0.000   0.001   0.001   0.000  -0.001
 -0.004   0.001  -0.002   0.000  -0.009   0.002  -0.000   0.003
  0.002  -0.001  -0.027  -0.005   0.000   0.016   0.003  -0.000
  0.024  -0.005   0.003  -0.036   0.001  -0.002   0.015  -0.001
  0.003  -0.001   0.000  -0.003  -0.026  -0.000   0.002   0.016
 -0.003   0.001   0.001   0.000  -0.003  -0.002  -0.000   0.002
 -0.003   0.000   0.000  -0.011   0.001  -0.000   0.009  -0.001
 -0.000  -0.000  -0.000   0.001  -0.014   0.000  -0.000   0.011
  0.000   0.000  -0.013  -0.000  -0.000   0.007  -0.000   0.000
 -0.004  -0.000   0.000  -0.009   0.000  -0.000   0.004  -0.000
 -0.000  -0.000  -0.000   0.000  -0.013   0.000  -0.000   0.007
  0.000  -0.000  -0.014  -0.000  -0.000   0.010   0.000   0.000
 -0.000   0.000  -0.000  -0.000  -0.001   0.000   0.000   0.001
 -0.003   0.000   0.000  -0.011   0.001  -0.000   0.009  -0.001
 -0.000  -0.000  -0.000   0.001  -0.014   0.000  -0.000   0.011
  0.000   0.000  -0.013  -0.000  -0.000   0.007  -0.000   0.000
 -0.004  -0.000   0.000  -0.009   0.000  -0.000   0.004  -0.000
 -0.000  -0.000  -0.000   0.000  -0.013   0.000  -0.000   0.007
  0.000  -0.000  -0.013  -0.000  -0.000   0.010   0.000   0.000
 -0.000   0.000  -0.000  -0.000  -0.001   0.000   0.000   0.001
 pseudopotential strength for first ion, spin component:           2
 24.577 -18.795   0.008   0.048   0.004  -0.006  -0.031  -0.003
-18.795   9.874  -0.004  -0.023  -0.002   0.003   0.018   0.002
  0.008  -0.004  13.759  -0.002   0.002  -6.321   0.002  -0.003
  0.048  -0.023  -0.002  13.737  -0.002   0.002  -6.284   0.003
  0.004  -0.002   0.002  -0.002  13.764  -0.003   0.003  -6.325
 -0.006   0.003  -6.321   0.002  -0.003  13.931  -0.002   0.003
 -0.031   0.018   0.002  -6.284   0.003  -0.002  13.893  -0.002
 -0.003   0.002  -0.003   0.003  -6.325   0.003  -0.002  13.936
  0.002  -0.000   0.001  -0.000   0.005  -0.001   0.000  -0.002
 -0.001   0.000   0.014   0.003  -0.000  -0.008  -0.001   0.000
 -0.010   0.002  -0.002   0.019  -0.001   0.001  -0.007   0.000
 -0.002   0.000  -0.000   0.001   0.013   0.000  -0.001  -0.008
  0.002  -0.000  -0.000  -0.000   0.001   0.001   0.000  -0.001
 -0.004   0.001  -0.002   0.000  -0.009   0.002  -0.000   0.003
  0.002  -0.001  -0.027  -0.005   0.000   0.016   0.003  -0.000
  0.024  -0.005   0.003  -0.036   0.001  -0.002   0.015  -0.001
  0.003  -0.001   0.000  -0.003  -0.026  -0.000   0.002   0.016
 -0.003   0.001   0.001   0.000  -0.003  -0.002  -0.000   0.002
 -0.003   0.000   0.000  -0.011   0.001  -0.000   0.008  -0.001
 -0.000  -0.000  -0.000   0.001  -0.014   0.000  -0.000   0.010
  0.000   0.000  -0.013  -0.000  -0.000   0.007  -0.000   0.000
 -0.004  -0.000   0.000  -0.009   0.000  -0.000   0.004  -0.000
 -0.000  -0.000  -0.000   0.000  -0.013   0.000  -0.000   0.007
  0.000  -0.000  -0.014  -0.000  -0.000   0.010   0.000   0.000
 -0.000   0.000  -0.000  -0.000  -0.001   0.000   0.000   0.001
 -0.003   0.000   0.000  -0.011   0.001  -0.000   0.008  -0.001
 -0.000  -0.000  -0.000   0.001  -0.014   0.000  -0.000   0.010
  0.000   0.000  -0.013  -0.000  -0.000   0.007  -0.000   0.000
 -0.004  -0.000   0.000  -0.009   0.000  -0.000   0.004  -0.000
 -0.000  -0.000  -0.000   0.000  -0.013   0.000  -0.000   0.007
  0.000  -0.000  -0.013  -0.000  -0.000   0.010   0.000   0.000
 -0.000   0.000  -0.000  -0.000  -0.001   0.000   0.000   0.001
 total augmentation occupancy for first ion, spin component:           1
  1.870  -0.361   0.001   0.004   0.000   0.000   0.002   0.000   0.000   0.000   0.008  -0.000   0.000   0.001  -0.000  -0.004
 -0.361   0.926   0.007   0.074   0.004  -0.002  -0.020  -0.001   0.014  -0.013  -0.135  -0.014   0.015   0.002  -0.002  -0.022
  0.001   0.007   2.052  -0.000   0.000  -0.077   0.000  -0.000   0.001   0.004  -0.003   0.001   0.011   0.000  -0.001  -0.000
  0.004   0.074  -0.000   2.034  -0.000   0.000  -0.064   0.000   0.001   0.002   0.086   0.003  -0.000   0.000  -0.000   0.007
  0.000   0.004   0.000  -0.000   2.053  -0.000   0.000  -0.078   0.017   0.001  -0.001   0.002   0.002   0.000   0.000  -0.000
  0.000  -0.002  -0.077   0.000  -0.000   0.016  -0.000   0.000  -0.001   0.001   0.002  -0.000  -0.005  -0.000  -0.000   0.000
  0.002  -0.020   0.000  -0.064   0.000  -0.000   0.010  -0.000  -0.000  -0.001  -0.032  -0.001   0.000  -0.000  -0.000  -0.005
  0.000  -0.001  -0.000   0.000  -0.078   0.000  -0.000   0.017  -0.009  -0.000   0.000   0.002  -0.001  -0.001  -0.000   0.000
  0.000   0.014   0.001   0.001   0.017  -0.001  -0.000  -0.009   0.594  -0.005  -0.009  -0.227   0.011   0.099  -0.001  -0.002
  0.000  -0.013   0.004   0.002   0.001   0.001  -0.001  -0.000  -0.005   0.409   0.004   0.005  -0.210  -0.001   0.063   0.001
  0.008  -0.135  -0.003   0.086  -0.001   0.002  -0.032   0.000  -0.009   0.004   0.518   0.005  -0.012  -0.002   0.001   0.083
 -0.000  -0.014   0.001   0.003   0.002  -0.000  -0.001   0.002  -0.227   0.005   0.005   0.416  -0.010  -0.041   0.001   0.001
  0.000   0.015   0.011  -0.000   0.002  -0.005   0.000  -0.001   0.011  -0.210  -0.012  -0.010   0.566   0.002  -0.038  -0.002
  0.001   0.002   0.000   0.000   0.000  -0.000  -0.000  -0.001   0.099  -0.001  -0.002  -0.041   0.002   0.018  -0.000  -0.000
 -0.000  -0.002  -0.001  -0.000   0.000  -0.000  -0.000  -0.000  -0.001   0.063   0.001   0.001  -0.038  -0.000   0.011   0.000
 -0.004  -0.022  -0.000   0.007  -0.000   0.000  -0.005   0.000  -0.002   0.001   0.083   0.001  -0.002  -0.000   0.000   0.015
 -0.000  -0.002   0.000   0.000  -0.001  -0.000  -0.000   0.000  -0.041   0.001   0.001   0.065  -0.002  -0.008   0.000   0.000
  0.000   0.003   0.000  -0.000   0.000  -0.000   0.000  -0.000   0.002  -0.038  -0.002  -0.002   0.094   0.000  -0.008  -0.000
 -0.008   0.091   0.010  -0.163   0.009  -0.012   0.096  -0.007   0.005  -0.020  -0.094  -0.015   0.042   0.001  -0.004  -0.008
 -0.001  -0.000  -0.001   0.007  -0.213   0.002  -0.003   0.126  -0.051   0.011  -0.000   0.063  -0.016  -0.006   0.002  -0.000
  0.000  -0.013  -0.167  -0.003  -0.001   0.064   0.000   0.001  -0.002   0.103   0.015  -0.001  -0.022  -0.000   0.021   0.002
 -0.037   0.451   0.007  -0.104   0.003  -0.006   0.017  -0.005   0.000  -0.020   0.606  -0.012   0.019   0.000  -0.004   0.106
 -0.001   0.005  -0.002  -0.001  -0.170   0.001  -0.000   0.069  -0.048  -0.002   0.016   0.103  -0.006  -0.008  -0.000   0.003
 -0.000  -0.022  -0.201   0.001  -0.006   0.116  -0.003   0.005  -0.017   0.027   0.009   0.020  -0.028  -0.003   0.002   0.002
  0.000   0.008  -0.005  -0.002  -0.005   0.000   0.001   0.001  -0.017  -0.014  -0.005  -0.004   0.026  -0.003  -0.003  -0.001
  0.010  -0.123  -0.016   0.210  -0.015   0.015  -0.114   0.010  -0.005   0.023   0.128   0.017  -0.049  -0.002   0.005   0.011
  0.001   0.001   0.003  -0.009   0.279  -0.003   0.004  -0.152   0.068  -0.012  -0.000  -0.081   0.019   0.008  -0.002   0.000
 -0.000   0.015   0.203   0.003   0.003  -0.076  -0.000  -0.002   0.002  -0.109  -0.017   0.001   0.030   0.000  -0.022  -0.003
  0.040  -0.530  -0.010   0.125  -0.007   0.008  -0.024   0.006  -0.001   0.023  -0.681   0.013  -0.022  -0.000   0.004  -0.118
  0.001  -0.006   0.003   0.001   0.209  -0.002   0.000  -0.083   0.062   0.003  -0.018  -0.109   0.007   0.009   0.000  -0.003
  0.000   0.027   0.262  -0.002   0.009  -0.140   0.003  -0.007   0.020  -0.039  -0.011  -0.022   0.041   0.004  -0.003  -0.002
 -0.000  -0.008   0.005   0.002   0.006  -0.000  -0.001  -0.001   0.019   0.016   0.006   0.004  -0.029   0.003   0.003   0.001
 total augmentation occupancy for first ion, spin component:           2
  0.000   0.000  -0.000   0.000   0.000  -0.000   0.000  -0.000  -0.000   0.000   0.000   0.000  -0.000  -0.000  -0.000   0.000
  0.000   0.000  -0.000   0.000  -0.000   0.000   0.000   0.000   0.000  -0.000  -0.000  -0.000   0.000   0.000  -0.000   0.000
 -0.000  -0.000   0.000  -0.000   0.000   0.000  -0.000  -0.000  -0.000   0.000   0.000   0.000  -0.000  -0.000   0.000   0.000
  0.000   0.000  -0.000   0.000  -0.000  -0.000   0.000   0.000   0.000   0.000   0.000   0.000  -0.000   0.000  -0.000   0.000
  0.000  -0.000   0.000  -0.000   0.000  -0.000   0.000   0.000  -0.000   0.000   0.000   0.000  -0.000   0.000   0.000   0.000
 -0.000   0.000   0.000  -0.000  -0.000   0.000  -0.000   0.000   0.000   0.000  -0.000  -0.000   0.000   0.000   0.000  -0.000
  0.000   0.000  -0.000   0.000   0.000  -0.000   0.000  -0.000  -0.000  -0.000   0.000  -0.000   0.000  -0.000  -0.000  -0.000
 -0.000   0.000  -0.000   0.000   0.000   0.000  -0.000   0.000   0.000  -0.000  -0.000   0.000   0.000   0.000  -0.000  -0.000
 -0.000   0.000  -0.000   0.000  -0.000   0.000  -0.000   0.000   0.000   0.000  -0.000   0.000   0.000   0.000  -0.000  -0.000
  0.000  -0.000   0.000   0.000   0.000   0.000  -0.000  -0.000   0.000   0.000  -0.000  -0.000   0.000  -0.000   0.000  -0.000
  0.000  -0.000   0.000   0.000   0.000  -0.000   0.000  -0.000  -0.000  -0.000   0.000  -0.000  -0.000  -0.000  -0.000   0.000
  0.000  -0.000   0.000   0.000   0.000  -0.000  -0.000   0.000   0.000  -0.000  -0.000   0.000  -0.000  -0.000   0.000  -0.000
 -0.000   0.000  -0.000  -0.000  -0.000   0.000   0.000   0.000   0.000   0.000  -0.000  -0.000   0.000   0.000  -0.000  -0.000
 -0.000   0.000  -0.000   0.000   0.000   0.000  -0.000   0.000   0.000  -0.000  -0.000  -0.000   0.000   0.000  -0.000  -0.000
 -0.000  -0.000   0.000  -0.000   0.000   0.000  -0.000  -0.000  -0.000   0.000  -0.000   0.000  -0.000  -0.000   0.000  -0.000
  0.000   0.000   0.000   0.000   0.000  -0.000  -0.000  -0.000  -0.000  -0.000   0.000  -0.000  -0.000  -0.000  -0.000   0.000
 -0.000  -0.000   0.000  -0.000   0.000  -0.000  -0.000  -0.000  -0.000  -0.000  -0.000   0.000  -0.000  -0.000   0.000  -0.000
  0.000   0.000   0.000  -0.000  -0.000   0.000  -0.000   0.000   0.000  -0.000  -0.000  -0.000   0.000   0.000  -0.000  -0.000
 -0.000  -0.001   0.000  -0.000   0.000  -0.000   0.000  -0.000  -0.000   0.000   0.000   0.000   0.000  -0.000   0.000   0.000
 -0.000   0.000  -0.000   0.000  -0.001   0.000  -0.000   0.000   0.000  -0.000  -0.000   0.000   0.000   0.000  -0.000  -0.000
  0.000   0.000  -0.000   0.000  -0.000   0.000   0.000   0.000   0.000  -0.000  -0.000  -0.000   0.001   0.000   0.000  -0.000
 -0.000   0.000   0.000  -0.000   0.000  -0.000  -0.000  -0.000  -0.000   0.000   0.001   0.000  -0.000  -0.000   0.000   0.000
 -0.000   0.000  -0.000   0.000  -0.000   0.000   0.000   0.000   0.001  -0.000   0.000  -0.000   0.000   0.000   0.000   0.000
 -0.000   0.000  -0.001  -0.000  -0.000   0.000   0.000   0.000   0.000   0.000  -0.000  -0.000   0.000   0.000   0.000  -0.000
  0.000  -0.000   0.000   0.000  -0.000  -0.000   0.000   0.000   0.000  -0.000  -0.000  -0.000   0.000   0.000  -0.000  -0.000
  0.000   0.001  -0.000   0.001  -0.000   0.000  -0.000   0.000   0.000  -0.000  -0.000  -0.000  -0.000   0.000  -0.000  -0.000
  0.000  -0.001   0.000  -0.000   0.001  -0.000   0.000  -0.000  -0.000   0.000   0.000  -0.000  -0.000  -0.000   0.000   0.000
 -0.000  -0.000   0.000  -0.000   0.000  -0.000  -0.000  -0.000  -0.000   0.000   0.000   0.000  -0.001  -0.000  -0.000   0.000
  0.000   0.000  -0.000   0.000  -0.000   0.000  -0.000   0.000   0.000  -0.000  -0.000  -0.000   0.000   0.000  -0.000  -0.000
  0.000  -0.000   0.000  -0.000   0.000  -0.000  -0.000  -0.000  -0.001   0.000  -0.000   0.000  -0.000  -0.000  -0.000  -0.000
  0.000  -0.000   0.001   0.000   0.000  -0.000  -0.000  -0.000  -0.000  -0.000   0.000   0.000  -0.000  -0.000  -0.000   0.000
 -0.000   0.000  -0.000  -0.000   0.000   0.000  -0.000  -0.000   0.000  -0.000   0.000   0.000  -0.000  -0.000   0.000   0.000


------------------------ aborting loop EDIFF was not reached (unconverged)  ----------------------------


 -----------------------------------------------------------------------------
|                                                                             |
|           W    W    AA    RRRRR   N    N  II  N    N   GGGG   !!!           |
|           W    W   A  A   R    R  NN   N  II  NN   N  G    G  !!!           |
|           W    W  A    A  R    R  N N  N  II  N N  N  G       !!!           |
|           W WW W  AAAAAA  RRRRR   N  N N  II  N  N N  G  GGG   !            |
|           WW  WW  A    A  R   R   N   NN  II  N   NN  G    G                |
|           W    W  A    A  R    R  N    N  II  N    N   GGGG   !!!           |
|                                                                             |
|     The electronic self-consistency was not achieved in the given           |
|     number of steps (NELM). The forces and other quantities evaluated       |
|     might not be reliable so examine the results carefully. If you find     |
|     spurious results, we suggest increasing NELM, if you were close to      |
|     convergence or switching to a different ALGO or adjusting the           |
|     density mixing parameters otherwise.                                    |
|                                                                             |
 -----------------------------------------------------------------------------

    CHARGE:  cpu time      0.2668: real time      0.2671
    FORLOC:  cpu time      0.0155: real time      0.0156
    FORNL :  cpu time      1.3838: real time      1.3858
    STRESS:  cpu time      4.1851: real time      4.1872
    FORCOR:  cpu time      0.0626: real time      0.0629
    FORHAR:  cpu time      0.0242: real time      0.0244
    MIXING:  cpu time      0.0071: real time      0.0071
    OFIELD:  cpu time      0.0026: real time      0.0028

 ---------------------------------------------------------------------------------------------

         DFTD3 V3.0 Rev 1        
 DF pbe       
 parameters
 k1-k3        =   16.0000    1.3333   -4.0000
 Edisp (eV)  -20.97657

 E6    (eV) :   -11.9086
 E8    (eV) :    -9.0680
 % E8        : 43.23
    FORVDW:  cpu time      2.0566: real time      2.0598

  FORCE on cell =-STRESS in cart. coord.  units (eV):
  Direction    XX          YY          ZZ          XY          YZ          ZX
  --------------------------------------------------------------------------------------
  Alpha Z  2397.92105  2397.92105  2397.92105
  Ewald  173265.07293176588.41616************ -1790.27666   934.31729 -2090.43462
  Hartree195692.43890199682.17324************ -2089.18763   310.59905 -1355.03896
  E(xc)   -5545.63036 -5549.67355 -5557.04524     2.29746     3.50313    -3.69055
  Local  ************************370015.73367  3984.79905 -1063.39665  3241.20594
  n-local  -671.91939  -682.98610  -683.65533    -3.17709    -3.40456    -0.95405
  augment  -119.84480   -96.28866   -59.33322    -5.89838   -11.27535    13.36370
  Kinetic 23043.41258 23394.90994 23602.61773   -93.56900  -148.66406   187.56437
  Fock        0.00000     0.00000     0.00000     0.00000     0.00000     0.00000
  vdW       -21.74021   -21.97867   -15.12127    -0.02180     0.01596     0.09418
  -------------------------------------------------------------------------------------
  Total     -17.17297    -5.73624    39.16975     4.96594    21.69481    -7.88999
  in kB      -6.31175    -2.10830    14.39645     1.82518     7.97371    -2.89989
  external pressure =        1.99 kB  Pullay stress =        0.00 kB

  kinetic pressure (ideal gas correction) =      1.24 kB
  total pressure  =      3.23 kB
  Total+kin.    -5.194      -0.810      15.686       1.779       8.037      -2.941

 VOLUME and BASIS-vectors are now :
 -----------------------------------------------------------------------------
  energy-cutoff  :      520.00
  volume of cell :     4359.19
      direct lattice vectors                 reciprocal lattice vectors
    15.464300000  0.000000000  0.000000000     0.064665067  0.037334394  0.000000000
    -7.732150000 13.392476650  0.000000000     0.000000000  0.074668788  0.000000000
     0.000000000  0.000000000 21.048200000     0.000000000  0.000000000  0.047510001

  length of vectors
    15.464300000 15.464299998 21.048200000     0.074668788  0.074668788  0.047510001


 FORCES acting on ions
    electron-ion (+dipol)            ewald-force                    non-local-force                 convergence-correction
 -----------------------------------------------------------------------------------------------
   0.620E+02 0.502E+02 -.110E+04   -.623E+02 -.508E+02 0.110E+04   0.153E+00 0.322E+00 0.199E+01   0.161E+00 0.332E+00 -.980E+00
   0.410E+02 0.217E+02 0.134E+04   -.410E+02 -.219E+02 -.134E+04   0.437E-01 -.269E-01 0.317E+00   -.421E-01 0.329E+00 -.508E+00
   0.167E+03 0.150E+03 -.807E+03   -.166E+03 -.152E+03 0.806E+03   -.413E+00 0.926E+00 0.187E+01   0.108E+00 0.379E+00 -.744E+00
   0.677E+01 0.680E+01 0.139E+04   -.676E+01 -.652E+01 -.139E+04   -.709E-01 -.110E+00 0.435E+00   0.868E-01 0.175E-01 -.436E+00
   -.768E+01 -.469E+02 -.635E+03   0.684E+01 0.475E+02 0.635E+03   0.105E+01 -.852E+00 0.121E+01   -.231E+00 0.381E+00 -.104E+01
   -.356E+02 -.206E+02 0.136E+04   0.356E+02 0.201E+02 -.136E+04   -.134E-01 -.119E-01 0.237E+00   0.879E-03 0.469E+00 -.680E+00
   -.215E+03 -.861E+02 -.889E+03   0.216E+03 0.863E+02 0.888E+03   -.676E+00 -.554E+00 0.230E+01   -.392E-01 0.406E+00 -.990E+00
   -.113E+02 -.804E+00 0.131E+04   0.114E+02 0.206E+00 -.131E+04   0.265E-01 -.302E-01 0.304E+00   -.414E-01 0.686E+00 -.487E+00
   0.240E+02 0.332E+02 -.108E+04   -.242E+02 -.333E+02 0.108E+04   0.221E+00 -.168E+00 0.208E+01   -.410E-01 0.190E+00 -.109E+01
   0.337E+02 0.247E+02 0.135E+04   -.331E+02 -.250E+02 -.134E+04   -.797E-02 0.385E-01 0.276E+00   -.533E+00 0.122E+00 -.144E+01
   0.224E+03 0.730E+02 -.771E+03   -.225E+03 -.724E+02 0.772E+03   0.117E+01 -.546E+00 0.750E+00   0.139E+00 -.127E+00 -.843E+00
   0.107E+02 0.328E+01 0.137E+04   -.104E+02 -.316E+01 -.137E+04   -.250E-01 0.624E-01 0.926E+00   -.235E+00 -.261E+00 -.548E+00
   -.103E+03 -.130E+02 -.587E+03   0.104E+03 0.120E+02 0.587E+03   -.107E+01 0.108E+01 0.596E+00   -.112E+00 -.206E+00 -.585E+00
   -.376E+02 -.202E+02 0.135E+04   0.368E+02 0.202E+02 -.135E+04   0.852E-01 0.713E-01 0.553E+00   0.569E+00 -.127E+00 -.716E+00
   -.153E+03 -.107E+03 -.947E+03   0.153E+03 0.106E+03 0.945E+03   -.116E+00 0.421E+00 0.241E+01   0.646E-02 0.117E+00 -.991E+00
   -.713E+01 -.359E+01 0.132E+04   0.701E+01 0.332E+01 -.131E+04   -.538E-01 0.857E-02 0.298E+00   0.220E+00 0.251E+00 -.206E+01
   0.620E+02 0.252E+02 -.106E+04   -.623E+02 -.253E+02 0.106E+04   0.193E+00 0.345E+00 0.200E+01   0.933E-01 -.225E+00 -.112E+01
   0.381E+02 0.193E+02 0.134E+04   -.380E+02 -.186E+02 -.134E+04   0.408E-01 0.448E-02 0.350E+00   -.110E+00 -.673E+00 -.108E+01
   0.141E+03 0.135E+03 -.806E+03   -.141E+03 -.136E+03 0.805E+03   -.488E+00 0.126E+01 0.191E+01   -.275E+00 -.308E+00 -.108E+01
   0.251E+01 0.462E+01 0.138E+04   -.191E+01 -.403E+01 -.138E+04   -.567E-01 -.836E-01 0.496E+00   -.551E+00 -.336E+00 -.621E+00
   -.175E+02 -.887E+02 -.666E+03   0.165E+02 0.899E+02 0.666E+03   0.103E+01 -.770E+00 0.115E+01   -.735E-01 -.497E+00 -.103E+01
   -.339E+02 -.261E+02 0.134E+04   0.336E+02 0.262E+02 -.134E+04   -.125E-02 0.345E-02 0.236E+00   0.235E+00 -.247E+00 -.368E-01
   -.179E+03 -.129E+03 -.895E+03   0.180E+03 0.130E+03 0.894E+03   -.847E+00 -.487E+00 0.235E+01   0.250E+00 -.409E+00 -.106E+01
   -.615E+01 -.675E+01 0.131E+04   0.578E+01 0.738E+01 -.131E+04   0.105E-01 0.983E-02 0.321E+00   0.424E+00 -.604E+00 -.626E+00
   0.638E+02 0.168E+02 -.111E+04   -.642E+02 -.164E+02 0.111E+04   0.159E+00 -.330E+00 0.208E+01   0.253E+00 -.250E-01 -.103E+01
   0.375E+02 0.201E+02 0.134E+04   -.377E+02 -.201E+02 -.134E+04   -.212E-01 0.344E-01 0.230E+00   0.246E+00 -.604E-01 -.263E+00
   0.215E+03 0.684E+02 -.761E+03   -.216E+03 -.676E+02 0.761E+03   0.136E+01 -.750E+00 0.810E+00   -.195E+00 -.676E-01 -.105E+01
   0.853E+01 0.268E+01 0.137E+04   -.812E+01 -.284E+01 -.137E+04   -.394E-01 0.360E-01 0.956E+00   -.240E+00 0.246E-01 -.884E+00
   -.124E+03 0.143E+02 -.619E+03   0.125E+03 -.149E+02 0.620E+03   -.121E+01 0.687E+00 0.660E+00   -.124E+00 0.377E-02 -.143E+01
   -.417E+02 -.188E+02 0.134E+04   0.416E+02 0.184E+02 -.134E+04   0.108E+00 0.404E-01 0.529E+00   -.171E+00 0.271E+00 -.386E+00
   -.159E+03 -.948E+02 -.101E+04   0.159E+03 0.945E+02 0.101E+04   -.142E+00 0.201E+00 0.245E+01   0.133E+00 0.720E-01 -.118E+01
   -.467E+01 -.632E+01 0.130E+04   0.458E+01 0.627E+01 -.130E+04   -.497E-01 -.179E-01 0.225E+00   0.181E+00 0.100E+00 -.658E+00
   -.247E+03 -.921E+02 -.139E+04   0.247E+03 0.898E+02 0.139E+04   0.607E+00 -.756E+00 0.563E+00   0.680E-01 0.653E+00 -.519E+00
   0.153E+03 0.151E+03 -.129E+04   -.152E+03 -.150E+03 0.129E+04   -.484E+00 -.630E+00 0.699E+00   -.900E+00 -.624E+00 -.565E+00
   -.222E+03 -.209E+03 -.128E+04   0.221E+03 0.209E+03 0.128E+04   0.168E+00 0.616E+00 0.787E+00   0.154E+00 -.115E+01 -.103E+01
   0.189E+03 0.195E+03 -.126E+04   -.189E+03 -.195E+03 0.126E+04   -.688E+00 -.121E+00 0.890E+00   0.432E+00 0.415E-01 -.564E+00
   0.102E+02 0.743E+01 0.972E+03   -.102E+02 -.784E+01 -.980E+03   -.261E-01 -.720E-01 0.708E+01   -.338E-01 0.459E+00 -.271E+00
   0.685E+02 0.357E+02 -.140E+03   -.683E+02 -.350E+02 0.141E+03   -.363E+00 -.853E+00 -.312E+00   0.952E-01 0.131E+00 -.365E+00
   0.113E+03 0.541E+02 -.821E+03   -.114E+03 -.547E+02 0.829E+03   0.360E+00 0.478E+00 -.794E+01   0.631E-01 0.107E+00 -.509E+00
   0.932E+01 0.785E+01 0.369E+03   -.944E+01 -.796E+01 -.369E+03   0.102E+00 -.700E-01 0.630E+00   0.500E-01 0.152E+00 -.320E+00
   0.893E+01 0.560E+01 0.124E+04   -.886E+01 -.583E+01 -.125E+04   0.240E-02 -.144E-02 0.114E+02   -.769E-01 0.234E+00 0.226E+00
   0.374E+03 0.359E+03 -.897E+03   -.396E+03 -.384E+03 0.900E+03   0.219E+02 0.254E+02 -.188E+01   0.303E+00 0.269E+00 -.388E+00
   0.970E+01 0.490E+01 0.991E+03   -.963E+01 -.499E+01 -.998E+03   -.228E-02 0.323E-01 0.708E+01   -.636E-01 0.739E-01 -.135E+00
   0.155E+02 0.185E+02 -.589E+02   -.167E+02 -.189E+02 0.588E+02   0.129E+01 0.318E+00 0.307E+00   -.589E-01 0.977E-01 -.316E+00
   0.925E+02 0.888E+02 -.452E+03   -.920E+02 -.880E+02 0.447E+03   -.617E+00 -.806E+00 0.482E+01   0.130E+00 0.404E-01 -.279E+00
   0.258E+02 0.144E+02 0.417E+03   -.258E+02 -.141E+02 -.418E+03   -.128E+00 -.454E+00 0.922E+00   0.633E-01 0.803E-01 -.244E+00
   0.560E+00 0.153E+01 0.125E+04   -.643E+00 -.155E+01 -.126E+04   -.592E-02 0.168E-03 0.114E+02   0.910E-01 0.264E-01 0.239E+00
   -.108E+02 -.549E+01 0.992E+03   0.106E+02 0.537E+01 -.999E+03   0.198E-01 0.200E-01 0.707E+01   0.140E+00 0.120E+00 -.178E+00
   -.520E+02 -.351E+02 -.106E+03   0.515E+02 0.340E+02 0.107E+03   0.435E+00 0.853E+00 -.646E+00   -.373E-01 0.173E+00 -.474E+00
   -.104E+03 -.590E+02 -.635E+03   0.105E+03 0.589E+02 0.644E+03   -.455E+00 0.115E+00 -.921E+01   -.121E+00 0.109E+00 -.422E+00
   -.859E+01 -.109E+00 0.431E+03   0.897E+01 0.765E-01 -.430E+03   -.475E+00 -.157E+00 0.147E+00   -.594E-01 0.667E-01 -.379E+00
   -.836E+01 -.710E+01 0.125E+04   0.834E+01 0.679E+01 -.126E+04   -.989E-04 -.103E-01 0.113E+02   0.277E-01 0.313E+00 0.201E+00
   -.355E+03 -.305E+03 -.953E+03   0.368E+03 0.333E+03 0.954E+03   -.100E+02 -.295E+02 -.143E+01   -.607E-01 0.141E+00 -.405E+00
   -.934E+01 -.517E+01 0.975E+03   0.937E+01 0.451E+01 -.982E+03   -.143E-01 -.870E-01 0.715E+01   -.145E-01 0.718E+00 -.409E+00
   -.292E+02 -.433E+01 -.202E+03   0.304E+02 0.456E+01 0.203E+03   -.118E+01 -.425E+00 0.115E+00   0.501E-02 0.196E+00 -.469E+00
   -.836E+02 -.555E+02 -.786E+03   0.829E+02 0.555E+02 0.796E+03   0.644E+00 -.226E+00 -.893E+01   -.308E-01 0.145E+00 -.505E+00
   -.273E+02 -.993E+01 0.398E+03   0.270E+02 0.955E+01 -.398E+03   0.587E+00 0.149E+00 0.733E+00   -.563E-01 0.229E+00 -.333E+00
   -.108E+01 -.241E+01 0.124E+04   0.114E+01 0.194E+01 -.125E+04   0.289E-03 -.935E-02 0.113E+02   -.526E-01 0.488E+00 0.191E+00
   0.111E+02 0.773E+01 0.973E+03   -.109E+02 -.749E+01 -.980E+03   0.387E-01 0.105E+00 0.717E+01   -.229E+00 -.320E+00 -.656E+00
   0.552E+02 0.387E+02 -.153E+03   -.550E+02 -.393E+02 0.153E+03   -.142E+00 0.629E+00 0.350E+00   -.757E-01 -.102E-01 -.559E+00
   0.742E+02 0.683E+02 -.803E+03   -.744E+02 -.681E+02 0.812E+03   0.307E+00 -.246E+00 -.832E+01   -.276E-01 -.217E-01 -.515E+00
   0.826E+01 0.694E+01 0.376E+03   -.808E+01 -.719E+01 -.376E+03   -.180E+00 -.889E-01 0.536E+00   -.872E-01 0.297E+00 -.661E+00
   0.104E+02 0.840E+01 0.124E+04   -.100E+02 -.844E+01 -.125E+04   -.116E-01 0.129E-02 0.113E+02   -.351E+00 0.386E-01 0.300E+00
   0.768E+01 0.685E+01 0.987E+03   -.735E+01 -.662E+01 -.994E+03   0.102E+00 0.706E-01 0.719E+01   -.393E+00 -.276E+00 -.317E+00
   0.223E+02 -.180E+01 -.550E+02   -.224E+02 0.155E+01 0.551E+02   0.125E+00 0.498E+00 0.137E+00   -.479E-02 -.197E+00 -.343E+00
   0.974E+02 0.261E+02 -.622E+03   -.956E+02 -.258E+02 0.631E+03   -.176E+01 -.574E-01 -.852E+01   -.496E-01 -.213E+00 -.508E+00
   0.215E+02 0.133E+02 0.408E+03   -.213E+02 -.135E+02 -.407E+03   0.458E-01 0.330E+00 -.906E-01   -.116E+00 0.396E-01 -.399E+00
   0.157E+01 0.437E+01 0.124E+04   -.136E+01 -.422E+01 -.125E+04   0.575E-02 0.115E-01 0.115E+02   -.220E+00 -.159E+00 0.223E+00
   -.120E+03 0.329E+02 -.767E+03   0.130E+03 -.366E+02 0.764E+03   -.947E+01 0.425E+01 0.335E+01   -.220E-01 -.331E+00 -.424E+00
   -.949E+01 -.507E+01 0.986E+03   0.941E+01 0.535E+01 -.993E+03   -.301E-01 0.356E-01 0.707E+01   0.957E-01 -.317E+00 -.410E-01
   -.688E+02 -.334E+02 -.114E+03   0.688E+02 0.338E+02 0.114E+03   -.758E-01 -.274E+00 0.141E+00   0.626E-01 -.102E+00 -.421E+00
   -.109E+03 -.101E+03 -.469E+03   0.109E+03 0.100E+03 0.462E+03   0.112E+00 0.959E+00 0.725E+01   0.572E-01 -.387E+00 -.513E+00
   -.590E+01 -.840E+01 0.432E+03   0.565E+01 0.847E+01 -.431E+03   0.258E+00 0.586E-01 -.987E+00   0.434E-01 -.631E-01 -.259E+00
   -.104E+02 -.716E+00 0.124E+04   0.997E+01 0.833E+00 -.125E+04   -.100E-02 0.944E-02 0.114E+02   0.405E+00 -.125E+00 0.293E+00
   -.940E+01 -.354E+01 0.971E+03   0.891E+01 0.387E+01 -.978E+03   -.110E+00 0.430E-01 0.718E+01   0.567E+00 -.356E+00 -.455E+00
   -.120E+02 -.999E+01 -.197E+03   0.121E+02 0.102E+02 0.198E+03   -.939E-01 -.262E+00 -.226E+00   0.210E-01 0.317E-01 -.639E+00
   -.844E+02 -.357E+02 -.804E+03   0.839E+02 0.349E+02 0.813E+03   0.476E+00 0.992E+00 -.812E+01   0.461E-01 -.136E+00 -.524E+00
   -.232E+02 -.159E+02 0.396E+03   0.231E+02 0.157E+02 -.396E+03   -.108E+00 0.264E-01 0.939E+00   0.155E+00 0.173E+00 -.560E+00
   -.154E+01 0.303E+01 0.124E+04   0.137E+01 -.312E+01 -.125E+04   -.259E-01 0.209E-01 0.114E+02   0.200E+00 0.729E-01 0.379E+00
   0.106E+02 0.533E+01 0.970E+03   -.108E+02 -.495E+01 -.977E+03   -.283E-01 0.164E-03 0.707E+01   0.193E+00 -.380E+00 -.125E+00
   0.613E+02 0.304E+02 -.135E+03   -.610E+02 -.294E+02 0.136E+03   -.294E+00 -.787E+00 -.266E+00   -.640E-01 -.149E+00 -.575E+00
   0.124E+03 0.386E+02 -.807E+03   -.125E+03 -.390E+02 0.815E+03   0.452E+00 0.447E+00 -.822E+01   0.804E-01 -.820E-01 -.514E+00
   0.940E+01 0.460E+01 0.374E+03   -.958E+01 -.433E+01 -.374E+03   0.115E+00 0.151E-01 0.677E+00   0.115E+00 -.274E+00 -.665E+00
   0.935E+01 0.598E+01 0.123E+04   -.932E+01 -.554E+01 -.125E+04   0.272E-02 0.154E-02 0.113E+02   -.331E-01 -.438E+00 0.336E+00
   0.339E+03 0.337E+03 -.894E+03   -.361E+03 -.362E+03 0.897E+03   0.226E+02 0.255E+02 -.303E+01   -.171E+00 -.150E+00 -.346E+00
   0.892E+01 0.332E+01 0.987E+03   -.868E+01 -.320E+01 -.994E+03   0.708E-02 0.132E-01 0.710E+01   -.237E+00 -.120E+00 -.276E+00
   0.766E+01 0.127E+02 -.728E+02   -.876E+01 -.128E+02 0.729E+02   0.123E+01 0.299E+00 0.386E+00   -.135E+00 -.157E+00 -.535E+00
   0.729E+02 0.889E+02 -.465E+03   -.716E+02 -.880E+02 0.459E+03   -.980E+00 -.650E+00 0.727E+01   -.287E+00 -.217E+00 -.547E+00
   0.218E+02 0.130E+02 0.416E+03   -.214E+02 -.124E+02 -.416E+03   -.102E+00 -.459E+00 0.101E+01   -.255E+00 -.197E+00 -.574E+00
   0.219E+01 0.188E+01 0.124E+04   -.181E+01 -.169E+01 -.125E+04   -.283E-02 -.791E-02 0.113E+02   -.381E+00 -.183E+00 0.224E+00
   -.113E+02 -.690E+01 0.982E+03   0.115E+02 0.692E+01 -.989E+03   0.506E-01 0.754E-02 0.707E+01   -.222E+00 -.202E-01 -.610E-02
   -.477E+02 -.469E+02 -.127E+03   0.473E+02 0.462E+02 0.128E+03   0.381E+00 0.841E+00 -.658E+00   0.679E-01 -.150E+00 -.483E+00
   -.121E+03 -.529E+02 -.684E+03   0.122E+03 0.532E+02 0.694E+03   -.544E+00 -.248E+00 -.862E+01   -.219E-01 -.971E-01 -.710E+00
   -.906E+01 -.464E+01 0.423E+03   0.951E+01 0.480E+01 -.423E+03   -.522E+00 -.207E-01 0.172E+00   -.102E+00 -.197E+00 -.269E+00
   -.944E+01 -.492E+01 0.123E+04   0.935E+01 0.504E+01 -.124E+04   -.664E-02 -.203E-02 0.113E+02   0.982E-01 -.127E+00 0.242E+00
   -.243E+03 -.434E+03 -.920E+03   0.253E+03 0.467E+03 0.924E+03   -.103E+02 -.324E+02 -.307E+01   0.174E+00 -.572E+00 -.912E+00
   -.834E+01 -.728E+01 0.966E+03   0.810E+01 0.727E+01 -.974E+03   -.423E-01 -.333E-01 0.709E+01   0.273E+00 0.365E-01 -.343E-01
   -.189E+02 -.175E+02 -.202E+03   0.201E+02 0.181E+02 0.202E+03   -.131E+01 -.464E+00 0.137E+00   0.132E+00 -.152E+00 -.540E+00
   -.633E+02 -.803E+02 -.828E+03   0.625E+02 0.804E+02 0.837E+03   0.691E+00 -.188E-01 -.828E+01   0.167E+00 -.732E-01 -.666E+00
   -.225E+02 -.158E+02 0.396E+03   0.218E+02 0.157E+02 -.396E+03   0.594E+00 0.245E+00 0.754E+00   0.250E+00 -.192E+00 -.357E+00
   -.207E+01 -.304E+00 0.123E+04   0.176E+01 0.669E+00 -.124E+04   -.119E-03 0.839E-02 0.113E+02   0.318E+00 -.377E+00 0.306E+00
   0.121E+02 0.515E+01 0.971E+03   -.120E+02 -.524E+01 -.978E+03   0.220E-01 0.521E-02 0.713E+01   -.786E-01 0.874E-01 -.988E-01
   0.639E+02 0.355E+02 -.155E+03   -.640E+02 -.359E+02 0.155E+03   0.104E-01 0.384E+00 0.316E+00   0.590E-01 0.341E-01 -.430E+00
   0.951E+02 0.753E+02 -.822E+03   -.954E+02 -.751E+02 0.831E+03   0.925E-01 -.364E+00 -.848E+01   0.142E+00 0.149E+00 -.520E+00
   0.131E+02 0.359E+01 0.370E+03   -.131E+02 -.348E+01 -.370E+03   -.212E+00 -.733E-01 0.527E+00   0.875E-01 -.812E-01 -.329E+00
   0.846E+01 0.145E+01 0.124E+04   -.859E+01 -.139E+01 -.125E+04   -.446E-02 -.427E-02 0.113E+02   0.129E+00 -.607E-01 0.221E+00
   0.784E+01 0.471E+01 0.990E+03   -.805E+01 -.468E+01 -.998E+03   0.312E-01 -.149E-01 0.714E+01   0.196E+00 -.108E-01 -.131E+00
   0.187E+02 0.608E+01 -.570E+02   -.187E+02 -.638E+01 0.574E+02   0.133E+00 0.235E+00 0.206E+00   -.133E+00 0.655E-01 -.592E+00
   0.102E+03 0.352E+02 -.621E+03   -.101E+03 -.353E+02 0.630E+03   -.156E+01 -.162E+00 -.836E+01   -.122E+00 0.179E+00 -.486E+00
   0.208E+02 0.122E+02 0.409E+03   -.207E+02 -.122E+02 -.408E+03   -.250E-01 0.335E+00 -.327E-01   0.795E-02 -.948E-01 -.434E+00
   0.326E+01 -.346E+01 0.124E+04   -.317E+01 0.347E+01 -.125E+04   -.119E-01 0.407E-02 0.114E+02   -.690E-01 -.143E-01 0.268E+00
   -.130E+03 0.460E+02 -.803E+03   0.139E+03 -.522E+02 0.800E+03   -.869E+01 0.604E+01 0.348E+01   -.254E+00 0.230E+00 -.557E+00
   -.983E+01 -.636E+01 0.988E+03   0.100E+02 0.626E+01 -.995E+03   -.570E-02 -.261E-01 0.707E+01   -.225E+00 0.103E+00 -.187E+00
   -.780E+02 -.222E+02 -.125E+03   0.781E+02 0.225E+02 0.126E+03   -.462E-01 -.463E+00 0.166E+00   -.301E-01 0.117E+00 -.487E+00
   -.117E+03 -.649E+02 -.465E+03   0.116E+03 0.641E+02 0.459E+03   0.410E+00 0.623E+00 0.662E+01   0.618E-02 0.272E+00 -.526E+00
   -.957E+01 -.624E+01 0.426E+03   0.955E+01 0.624E+01 -.424E+03   0.294E+00 0.540E-01 -.915E+00   -.201E+00 0.135E-01 -.391E+00
   -.945E+01 -.899E+01 0.123E+04   0.959E+01 0.883E+01 -.125E+04   0.108E-01 0.101E-01 0.113E+02   -.155E+00 0.151E+00 0.190E+00
   -.101E+02 -.527E+01 0.968E+03   0.101E+02 0.518E+01 -.975E+03   -.538E-01 -.385E-01 0.713E+01   0.121E+00 0.116E+00 -.878E-01
   -.717E+01 -.745E+01 -.218E+03   0.717E+01 0.773E+01 0.219E+03   -.110E+00 -.366E+00 -.207E+00   0.959E-01 0.701E-01 -.482E+00
   -.996E+02 -.145E+02 -.831E+03   0.989E+02 0.134E+02 0.839E+03   0.650E+00 0.850E+00 -.806E+01   0.285E-01 0.198E+00 -.596E+00
   -.240E+02 -.156E+02 0.383E+03   0.239E+02 0.156E+02 -.383E+03   -.945E-01 -.295E-01 0.929E+00   0.101E+00 0.416E-01 -.280E+00
   -.226E+01 -.437E+01 0.123E+04   0.217E+01 0.426E+01 -.124E+04   -.772E-02 0.102E-07 0.113E+02   0.927E-01 0.108E+00 0.248E+00
   0.227E+03 -.170E+03 -.797E+03   -.254E+03 0.176E+03 0.795E+03   0.281E+02 -.498E+01 0.247E+01   -.141E+00 -.509E+00 -.627E+00
   0.363E+03 -.121E+03 -.851E+03   -.381E+03 0.143E+03 0.849E+03   0.186E+02 -.211E+02 0.280E+01   -.266E+00 -.156E+00 -.389E+00
   0.246E+03 -.581E+02 -.833E+03   -.273E+03 0.635E+02 0.833E+03   0.268E+02 -.683E+01 0.356E+00   -.796E-01 0.280E+00 -.388E+00
   -.150E+03 -.528E+02 -.101E+04   0.141E+03 0.432E+02 0.105E+04   0.100E+02 0.103E+02 -.311E+02   -.142E+00 -.887E+00 -.275E+00
   -.132E+02 -.274E+02 -.993E+03   0.196E+02 0.391E+02 0.102E+04   -.469E+01 -.114E+02 -.313E+02   -.419E+00 -.123E+00 -.208E+00
   -.912E+02 -.603E+02 -.119E+04   0.843E+02 0.510E+02 0.122E+04   0.705E+01 0.905E+01 -.321E+02   -.282E+00 0.439E+00 -.291E+00
   -.475E+03 0.231E+01 -.898E+03   0.504E+03 -.153E+02 0.895E+03   -.291E+02 0.134E+02 0.292E+01   0.103E+00 -.451E+00 -.548E+00
   -.188E+03 0.248E+03 -.855E+03   0.215E+03 -.266E+03 0.852E+03   -.267E+02 0.185E+02 0.331E+01   -.407E+00 -.375E+00 -.469E+00
   -.490E+03 0.407E+02 -.934E+03   0.520E+03 -.551E+02 0.931E+03   -.284E+02 0.139E+02 0.347E+01   -.173E+00 0.483E+00 -.670E+00
   0.401E+03 -.973E+02 -.843E+03   -.420E+03 0.119E+03 0.841E+03   0.188E+02 -.211E+02 0.192E+01   0.215E+00 -.163E+00 -.411E+00
   0.307E+02 0.818E+02 -.900E+03   -.254E+02 -.746E+02 0.928E+03   -.483E+01 -.840E+01 -.315E+02   0.124E+00 0.133E+00 0.163E+00
   -.164E+03 0.275E+03 -.863E+03   0.190E+03 -.293E+03 0.858E+03   -.259E+02 0.179E+02 0.464E+01   -.103E+00 0.250E+00 -.396E+00
   -.137E+03 0.151E+00 -.429E+03   0.131E+03 -.346E+02 0.400E+03   0.571E+01 0.352E+02 0.284E+02   0.828E-01 -.878E+00 0.338E+00
   -.100E+03 0.906E+02 -.530E+03   0.912E+02 -.128E+03 0.501E+03   0.912E+01 0.372E+02 0.284E+02   0.130E+00 -.148E+00 0.109E+00
   0.110E+03 0.110E+03 -.315E+03   -.115E+03 -.144E+03 0.286E+03   -.236E+01 0.310E+02 0.290E+02   0.542E+00 -.261E+00 0.357E+00
   -.641E+02 0.105E+02 -.368E+03   0.717E+02 -.377E+02 0.338E+03   0.115E+01 0.330E+02 0.305E+02   0.208E+00 -.959E-01 0.287E+00
   0.457E+02 0.639E+02 -.502E+03   -.562E+02 -.100E+03 0.471E+03   0.116E+02 0.358E+02 0.319E+02   -.310E+00 -.119E+00 0.379E+00
   0.235E+02 -.164E+02 -.634E+03   -.350E+02 -.134E+02 0.611E+03   0.115E+02 0.324E+02 0.248E+02   -.810E+00 -.594E+00 0.182E+00
   -.888E+02 -.181E+03 -.402E+03   0.803E+02 0.148E+03 0.376E+03   0.993E+01 0.378E+02 0.294E+02   0.113E+01 0.375E+01 0.282E+01
   0.578E+02 -.524E+02 -.691E+03   -.682E+02 0.184E+02 0.663E+03   0.124E+02 0.344E+02 0.270E+02   -.479E+00 -.925E+00 -.236E+00
   -.294E+02 0.437E+02 -.690E+03   0.197E+02 -.711E+02 0.667E+03   0.128E+02 0.279E+02 0.177E+02   -.104E+00 -.261E+00 -.221E+00
   0.173E+03 0.206E+03 -.591E+03   -.181E+03 -.244E+03 0.561E+03   0.898E+01 0.373E+02 0.299E+02   -.118E+00 -.116E+00 0.457E-01
   -.583E+02 0.508E+02 -.385E+03   0.508E+02 -.851E+02 0.357E+03   0.536E+01 0.280E+02 0.242E+02   0.142E-01 -.637E+00 -.888E-01
   0.123E+02 -.195E+03 -.986E+03   -.206E+02 0.162E+03 0.962E+03   0.609E+01 0.362E+02 0.270E+02   -.986E-01 0.257E+00 -.289E+00
   0.154E+03 -.182E+02 -.681E+03   -.161E+03 -.201E+02 0.654E+03   0.548E+01 0.393E+02 0.265E+02   -.279E+00 -.872E-01 0.207E+00
   -.797E+02 0.162E+02 -.839E+03   0.709E+02 -.546E+02 0.810E+03   0.895E+01 0.383E+02 0.288E+02   -.166E-01 0.884E-01 -.262E+00
   0.165E+03 0.111E+03 -.350E+03   -.175E+03 -.149E+03 0.321E+03   0.103E+02 0.379E+02 0.293E+02   0.101E+00 0.184E+00 0.252E+00
   0.217E+03 0.250E+03 -.703E+03   -.225E+03 -.286E+03 0.674E+03   0.506E+01 0.331E+02 0.300E+02   0.250E+00 0.336E+00 -.224E-01
   0.279E+02 0.652E+02 -.665E+03   -.318E+02 -.102E+03 0.651E+03   0.332E+01 0.389E+02 0.235E+02   -.138E+00 -.418E+00 -.347E+00
   0.652E+02 0.166E+03 -.649E+03   -.760E+02 -.202E+03 0.619E+03   0.114E+02 0.337E+02 0.305E+02   0.102E+00 0.173E+00 0.259E-01
   0.179E+03 0.612E+02 -.568E+03   -.188E+03 -.989E+02 0.539E+03   0.896E+01 0.377E+02 0.296E+02   0.274E+00 -.444E-01 -.489E-01
   -.761E+01 -.506E+02 -.121E+03   -.114E+01 0.134E+02 0.925E+02   0.945E+01 0.367E+02 0.277E+02   -.539E+00 0.350E+00 0.737E+00
   0.336E+02 -.452E+02 -.119E+03   -.385E+02 0.493E+02 0.125E+03   0.520E+01 -.347E+01 -.562E+01   0.949E-03 -.160E+00 0.928E-01
   -.813E+02 -.477E+02 -.723E+02   0.884E+02 0.523E+02 0.725E+02   -.711E+01 -.439E+01 -.323E+00   0.642E-01 -.145E+00 0.722E-01
   0.287E+02 -.206E+02 -.133E+03   -.339E+02 0.240E+02 0.138E+03   0.523E+01 -.335E+01 -.556E+01   0.342E-01 -.465E-01 0.297E-01
   -.837E+02 -.320E+02 -.910E+02   0.906E+02 0.366E+02 0.915E+02   -.707E+01 -.437E+01 -.331E+00   0.232E-01 -.202E-01 0.216E-01
   0.621E+02 -.345E+02 -.102E+03   -.678E+02 0.375E+02 0.107E+03   0.509E+01 -.328E+01 -.541E+01   0.120E+00 -.532E-01 0.871E-01
   0.628E+00 -.479E-01 -.636E+02   -.146E+01 -.245E+01 0.620E+02   -.312E+01 -.198E+01 -.284E+00   0.623E-01 -.262E-01 0.538E-01
   0.466E+02 -.560E+02 -.115E+03   -.510E+02 0.615E+02 0.122E+03   0.530E+01 -.358E+01 -.576E+01   0.531E-01 -.169E-01 0.589E-01
   -.576E+02 -.429E+02 -.768E+02   0.650E+02 0.471E+02 0.767E+02   -.687E+01 -.424E+01 -.328E+00   0.736E-02 -.137E-01 0.482E-01
   0.574E+02 -.351E+02 -.120E+03   -.624E+02 0.383E+02 0.126E+03   0.525E+01 -.336E+01 -.558E+01   -.358E-01 -.981E-02 0.675E-01
   -.685E+02 -.519E+02 -.853E+02   0.755E+02 0.568E+02 0.859E+02   -.702E+01 -.437E+01 -.370E+00   -.782E-01 -.894E-02 0.735E-01
   0.346E+02 -.258E+02 -.143E+03   -.404E+02 0.288E+02 0.149E+03   0.527E+01 -.334E+01 -.556E+01   -.113E+00 -.601E-01 0.547E-01
   -.757E+02 -.627E+02 -.110E+03   0.831E+02 0.676E+02 0.110E+03   -.713E+01 -.441E+01 -.330E+00   -.254E+00 -.160E+00 0.364E-01
   0.420E+02 -.570E+02 -.105E+03   -.470E+02 0.606E+02 0.110E+03   0.518E+01 -.336E+01 -.552E+01   -.846E-01 0.371E+00 0.391E+00
   -.824E+02 -.626E+02 -.616E+02   0.893E+02 0.673E+02 0.621E+02   -.704E+01 -.428E+01 -.271E+00   0.278E+00 0.373E+00 0.214E+00
   0.320E+02 -.160E+02 -.137E+03   -.370E+02 0.179E+02 0.141E+03   0.477E+01 -.284E+01 -.486E+01   -.108E+00 -.140E+00 -.131E-01
   -.763E+02 -.749E+02 -.131E+03   0.835E+02 0.793E+02 0.131E+03   -.701E+01 -.426E+01 -.266E+00   -.108E+00 -.224E+00 -.895E-01
   0.833E+02 -.321E+02 -.122E+03   -.900E+02 0.363E+02 0.125E+03   0.533E+01 -.319E+01 -.414E+01   0.820E-01 -.115E+00 -.467E-01
   -.966E+02 -.331E+02 -.122E+03   0.104E+03 0.379E+02 0.121E+03   -.716E+01 -.440E+01 -.196E+00   -.139E+00 -.158E+00 -.614E-02
   0.755E+02 -.442E+01 -.148E+03   -.808E+02 0.793E+01 0.154E+03   0.529E+01 -.338E+01 -.554E+01   -.183E-01 -.173E-01 0.205E-01
   -.364E+02 -.119E+02 -.106E+03   0.435E+02 0.162E+02 0.106E+03   -.709E+01 -.431E+01 -.253E+00   -.384E-01 -.409E-01 0.845E-02
   0.629E+02 -.237E+02 -.118E+03   -.669E+02 0.253E+02 0.122E+03   0.539E+01 -.353E+01 -.574E+01   -.859E+00 0.532E+00 0.939E+00
   -.979E+02 -.301E+02 -.513E+02   0.103E+03 0.319E+02 0.505E+02   -.724E+01 -.438E+01 -.257E+00   0.117E+01 0.681E+00 0.687E-01
   0.354E+02 -.469E+02 -.219E+03   -.412E+02 0.504E+02 0.224E+03   0.512E+01 -.341E+01 -.558E+01   -.405E-01 0.329E-01 -.335E-01
   -.731E+02 -.912E+02 -.171E+03   0.798E+02 0.961E+02 0.172E+03   -.716E+01 -.432E+01 -.294E+00   0.238E-02 0.321E-01 -.551E-01
   0.673E+02 -.514E+02 -.152E+03   -.728E+02 0.551E+02 0.158E+03   0.515E+01 -.340E+01 -.544E+01   -.373E-01 0.160E-02 0.421E-01
   -.623E+02 -.674E+02 -.133E+03   0.693E+02 0.718E+02 0.133E+03   -.720E+01 -.438E+01 -.164E+00   -.525E-01 0.134E-01 0.373E-01
   0.355E+02 -.362E+02 -.186E+03   -.409E+02 0.396E+02 0.192E+03   0.531E+01 -.336E+01 -.557E+01   0.386E-03 0.800E-02 -.283E-01
   -.734E+02 -.377E+02 -.144E+03   0.805E+02 0.420E+02 0.145E+03   -.708E+01 -.430E+01 -.304E+00   0.104E-02 0.138E-01 -.406E-01
   0.716E+02 -.259E+02 -.987E+02   -.771E+02 0.294E+02 0.104E+03   0.533E+01 -.337E+01 -.559E+01   0.741E-02 0.251E-01 0.525E-01
   -.382E+02 -.309E+02 -.778E+02   0.449E+02 0.352E+02 0.783E+02   -.693E+01 -.427E+01 -.356E+00   0.153E-01 0.151E-01 0.338E-01
   0.807E+02 -.380E+01 -.153E+03   -.862E+02 0.695E+01 0.158E+03   0.524E+01 -.322E+01 -.544E+01   0.412E-01 0.391E-01 0.650E-02
   -.569E+02 0.232E+02 -.140E+03   0.641E+02 -.189E+02 0.140E+03   -.692E+01 -.408E+01 -.204E+00   0.211E-01 0.946E-01 -.138E-01
   0.621E+02 -.316E+02 -.132E+03   -.677E+02 0.354E+02 0.139E+03   0.526E+01 -.334E+01 -.547E+01   0.992E-03 -.752E-01 0.325E-02
   -.663E+02 -.341E+02 -.102E+03   0.740E+02 0.384E+02 0.103E+03   -.718E+01 -.429E+01 -.443E+00   -.578E-01 -.122E+00 -.212E-03
   0.620E+02 0.635E+00 -.162E+03   -.675E+02 0.327E+01 0.167E+03   0.535E+01 -.351E+01 -.553E+01   0.249E-01 0.321E-01 0.163E-01
   -.755E+02 -.233E+02 -.123E+03   0.824E+02 0.275E+02 0.123E+03   -.702E+01 -.429E+01 -.259E+00   -.768E-03 0.305E-01 0.190E-02
   0.775E+02 -.378E+02 -.143E+03   -.829E+02 0.413E+02 0.148E+03   0.527E+01 -.336E+01 -.552E+01   0.731E-01 -.770E-03 0.361E-02
   -.343E+02 -.405E+02 -.109E+03   0.412E+02 0.450E+02 0.109E+03   -.707E+01 -.432E+01 -.229E+00   0.109E-01 -.557E-02 -.543E-02
   0.520E+02 -.474E+02 -.575E+02   -.573E+02 0.508E+02 0.632E+02   0.532E+01 -.341E+01 -.563E+01   -.462E-01 0.329E-01 0.915E-01
   -.725E+02 -.603E+02 -.243E+02   0.793E+02 0.646E+02 0.246E+02   -.700E+01 -.434E+01 -.345E+00   -.867E-01 0.854E-01 0.139E+00
 -----------------------------------------------------------------------------------------------
   -.115E+03 -.559E+03 -.541E+03   0.426E-12 0.355E-12 -.254E-11   0.116E+03 0.561E+03 0.595E+03   -.171E+01 -.143E+01 -.531E+02
 
 
 POSITION                                       TOTAL-FORCE (eV/Angst)
 -----------------------------------------------------------------------------------
     -7.71614     13.38913      7.54662         0.042610      0.048968     -0.036516
      1.93311      1.11600      4.37403        -0.044794      0.096930      0.048895
     -3.90342     13.32779      7.52221         0.009870      0.148857      0.082325
      5.79919      1.11600      4.37403         0.025632      0.188230      0.160388
      7.67346      0.02263      7.57861        -0.028806      0.091995      0.001821
      9.66526      1.11600      4.37403        -0.005189     -0.055635      0.157949
     11.67539      0.04286      7.53652        -0.020329      0.028197      0.006109
     13.53134      1.11600      4.37403         0.034421      0.058280     -0.168088
     13.52106      3.34517      7.54304        -0.035138     -0.034137     -0.019902
      0.00008      4.46411      4.37403         0.006418     -0.129491     -0.114113
      1.88139      3.36607      7.59082         0.138166     -0.052331      0.103882
      3.86615      4.46411      4.37403         0.102673     -0.087796      0.369103
      5.85710      3.32669      7.62029        -0.060290     -0.074864      0.107216
      7.73223      4.46411      4.37403        -0.151709     -0.052391      0.162093
      9.68328      3.34383      7.53715        -0.032924     -0.028284     -0.016774
     11.59830      4.46411      4.37403         0.043402     -0.018725      0.044317
     -3.84852      6.69343      7.54641         0.004656      0.020780      0.011728
     -1.93296      7.81223      4.37403        -0.021179      0.087831      0.032503
     -0.03665      6.62392      7.52010         0.037298     -0.006960      0.022785
      1.93311      7.81223      4.37403        -0.004695      0.166284      0.115416
      3.80329      6.72115      7.57483        -0.039633     -0.045283      0.014085
      5.79919      7.81223      4.37403        -0.038395     -0.078986      0.105826
      7.81481      6.74084      7.53462        -0.019183     -0.056405     -0.018623
      9.66526      7.81223      4.37403         0.069011      0.031192     -0.175571
      9.65313     10.04355      7.54199         0.068106      0.023537     -0.000475
     -3.86600     11.16035      4.37403        -0.012066     -0.111388     -0.173029
     -1.99149     10.06552      7.58514        -0.001493      0.026430      0.051920
      0.00008     11.16035      4.37403         0.127209     -0.097332      0.326650
      1.99080     10.02762      7.62113        -0.038553      0.036680      0.167501
      3.86615     11.16035      4.37403        -0.155683     -0.022457      0.112140
      5.81512     10.04074      7.53799        -0.051633     -0.001975     -0.038057
      7.73223     11.16035      4.37403         0.041081      0.032960     -0.014621
      1.86066     12.30153     10.55357         0.466456     -2.424087     -1.032685
     -0.08428      8.98448     10.56136        -0.085547     -0.195799     -0.992318
      5.68437      5.64439     10.57041        -0.184330     -0.319889     -0.916959
      3.84528      2.26775     10.54431        -0.768566      0.048328     -1.088120
     -0.00008      2.23212      3.58493        -0.011388     -0.020612     -0.220676
      1.93319      1.12175      6.74132        -0.036665     -0.016806     -0.069505
     -0.00363      2.23400      8.33130        -0.053581     -0.005639     -0.013395
      0.00000      0.00000      5.16312         0.034024     -0.025855      0.278193
      1.93311      1.11600      2.00652        -0.002952      0.001051      0.019615
      2.70239      0.92355     10.60177        -0.094839     -0.026034      0.229947
      3.86600      2.23212      3.58493         0.000740      0.020627     -0.224197
      5.77746      1.16273      6.75984         0.010854     -0.029530     -0.070326
      3.80576      2.11306      8.39655         0.045006     -0.039605     -0.605897
      3.86607      0.00000      5.16312         0.008730     -0.103633      0.250438
      5.79919      1.11600      2.00652         0.002285      0.001644      0.030896
      7.73207      2.23212      3.58493        -0.000123      0.013783     -0.223555
      9.68258      1.10153      6.73879        -0.011153     -0.024270     -0.041942
      7.77885      2.22020      8.28268         0.015486      0.098472     -0.226878
      7.73215      0.00000      5.16312        -0.153120     -0.123330      0.370364
      9.66526      1.11600      2.00652         0.004643     -0.005623      0.022510
     10.16492      0.57414     10.64071         2.609836     -1.403649     -0.992773
     11.59815      2.23212      3.58493        -0.000971     -0.021307     -0.211742
     13.55098      1.12591      6.72722        -0.002585     -0.006401     -0.045896
     11.62645      2.24873      8.30815        -0.024634     -0.067886     -0.147246
     11.59822      0.00000      5.16312         0.157757     -0.002585      0.276797
     13.53134      1.11600      2.00652         0.001663      0.002658      0.027793
     -1.93311      5.58024      3.58493         0.009218      0.031227     -0.207766
     -0.03758      4.42702      6.71859        -0.028721      0.010446     -0.054607
     -1.94951      5.54890      8.30962         0.009437     -0.008154     -0.001270
     -1.93304      3.34812      5.16312        -0.084829     -0.046868      0.186532
      0.00008      4.46411      2.00652        -0.006523      0.007509     -0.051457
      1.93296      5.58024      3.58493         0.040966      0.023278     -0.197286
      3.92855      4.45246      6.83940         0.008192      0.041247     -0.068178
      1.83886      5.58520      8.18333        -0.012374      0.043042     -0.040879
      1.93304      3.34812      5.16312         0.126787      0.143298      0.328028
      3.86615      4.46411      2.00652        -0.002100      0.002442      0.075453
      5.23923      3.67771      9.92591         0.195263      0.218154     -0.022485
      5.79904      5.58024      3.58493        -0.016968     -0.001274     -0.218932
      7.71460      4.48983      6.77373         0.015147      0.045791     -0.045064
      5.89383      5.72408      8.45548         0.031720      0.050445      0.004961
      5.79911      3.34812      5.16312         0.051535      0.069853      0.116858
      7.73223      4.46411      2.00652         0.003339      0.001760      0.023692
      9.66511      5.58024      3.58493        -0.040980      0.010806     -0.208146
     11.59374      4.45836      6.72511         0.007841      0.008196     -0.037971
      9.71653      5.60556      8.29931        -0.018587      0.021423     -0.026573
      9.66519      3.34812      5.16312        -0.102570      0.015650      0.362148
     11.59830      4.46411      2.00652         0.002365      0.001795     -0.087926
     -3.86615      8.92836      3.58493        -0.011593     -0.001115     -0.229928
     -1.92917      7.81906      6.74174         0.009591      0.009932     -0.027428
     -3.87373      8.92943      8.33067        -0.004961     -0.004678     -0.075673
     -3.86607      6.69624      5.16312         0.041089      0.012438      0.293976
     -1.93296      7.81223      2.00652         0.002530     -0.002309      0.010225
     -1.24248      7.66304     10.68933        -0.085345     -0.088008      0.133388
     -0.00008      8.92836      3.58493         0.005228      0.015216     -0.221047
      1.90056      7.86004      6.76489        -0.010008      0.013504     -0.050604
     -0.07554      8.79122      8.43822         0.031117      0.013281      0.089693
      0.00000      6.69624      5.16312         0.016336     -0.097739      0.269247
      1.93311      7.81223      2.00652        -0.003208     -0.002060      0.036267
      3.86600      8.92836      3.58493         0.008572      0.010022     -0.219996
      5.81651      7.79081      6.74153         0.004421     -0.000396     -0.041388
      3.90721      8.91269      8.28162         0.030103     -0.006358     -0.022620
      3.86607      6.69624      5.16312        -0.172870     -0.058065      0.357558
      5.79919      7.81223      2.00652        -0.002681     -0.004121      0.064130
      6.21881      7.31390     10.72448         0.032548      0.220779      0.054802
      7.73207      8.92836      3.58493        -0.008203     -0.007270     -0.218826
      9.68521      7.82268      6.72743        -0.016137      0.006177     -0.049350
      7.75682      8.94229      8.31151        -0.002900      0.005261     -0.008563
      7.73215      6.69624      5.16312         0.154831      0.039255      0.271931
      9.66526      7.81223      2.00652         0.007129     -0.004337      0.017581
     -5.79919     12.27648      3.58493         0.004485      0.003076     -0.213210
     -3.90427     11.12513      6.71837        -0.012760     -0.016278     -0.063319
     -5.81790     12.24220      8.30373        -0.037159     -0.023369     -0.040810
     -5.79911     10.04436      5.16312        -0.097830     -0.042264      0.177474
     -3.86600     11.16035      2.00652        -0.000810     -0.010791      0.025240
     -1.93311     12.27648      3.58493         0.021274     -0.002019     -0.205206
      0.05490     11.13263      6.83982         0.008803     -0.006628     -0.044518
     -2.02289     12.28706      8.17807         0.031915     -0.020304     -0.019358
     -1.93304     10.04436      5.16312         0.099603      0.145077      0.316654
      0.00008     11.16035      2.00652         0.007911     -0.006787      0.061727
      1.36635     10.37582      9.92402         0.080352      0.058509     -0.016131
      1.93296     12.27648      3.58493        -0.012071     -0.021918     -0.220424
      3.85556     11.18031      6.77142         0.002118     -0.007784     -0.040493
      2.02358     12.40210      8.41570        -0.013643      0.053190      0.025129
      1.93304     10.04436      5.16312         0.069064      0.062848      0.148362
      3.86615     11.16035      2.00652         0.000322      0.001614      0.048204
      5.79904     12.27648      3.58493        -0.024583     -0.016372     -0.214220
      7.72558     11.15125      6.72448        -0.009678     -0.016762     -0.039959
      5.85084     12.30032      8.29909         0.021352     -0.015615     -0.021629
      5.79911     10.04436      5.16312        -0.090342     -0.015632      0.367986
      7.73223     11.16035      2.00652        -0.001392     -0.000809     -0.002951
      4.01786      6.05059     10.01537         0.095287     -0.045040      0.078752
     -1.29568     10.21538     10.04041         0.016391      0.103015      0.044586
      0.18573     12.73276     10.04189         0.240298     -1.148056     -0.639276
      5.28191      5.13990     12.18691         0.672683     -0.215569     -0.101203
      0.14923      9.54857     12.19154         1.317772      0.133636     -1.939155
      1.51473     11.85529     12.19975        -0.110834      0.153874      0.370445
      7.30727      4.96071     10.37971         0.200342     -0.039616      0.012195
      1.33109      7.94509     10.33593         0.060377     -0.112732      0.035184
      3.46949     11.59293     10.31972         0.395212     -0.034877     -0.085284
      2.61207      3.49785     10.07493         0.058265     -0.032703     -0.049301
      4.06688      2.74211     12.20396         0.630560     -1.083521     -3.137272
      5.26861      1.24831     10.26458         0.229237     -0.051032      0.061975
      6.48070      5.34346     15.65902        -0.261503     -0.104548      0.021727
      9.42217      4.27394     14.25826         0.146439     -0.204465     -0.172097
      9.94478      7.34336     15.65902        -6.140689     -2.984997      0.369316
     -3.78744      8.34338     15.65902         8.944675      5.735507      0.721607
     -0.08923      8.67431     15.78426         0.868600     -0.813859      1.616407
      2.16949      7.44273     14.52642        -0.890270      2.067741      2.291132
      6.05072     10.92746     15.51842         2.606749      8.733950      5.786891
      3.42921      6.32473     13.01852         1.470008     -0.630110     -1.165503
      4.20111      3.55718     13.87729         2.922885      0.216949     -5.347176
     -0.24681      5.68323     13.71332         0.100280     -0.153942      0.090967
      5.63364      9.44277     14.52642        -2.182904     -6.887854     -4.198937
      8.29923      1.13863     11.00652        -2.288126      3.941461      2.281104
     -0.87079      9.55714     13.87729        -1.503020      0.795021      0.146094
     11.86491      3.21995     11.50474         0.103796      0.020623     -0.089769
      0.60473      1.95088     15.65902         0.195995     -0.135028     -0.067613
      3.12472      1.59290     13.79941        -1.941452     -2.322322      0.805440
      4.06889      3.95091     15.65902        -0.768412      1.594233      9.473810
     -3.58679     12.68321     13.71332         0.740715     -1.219979      0.138293
     -4.02598      9.33911     12.97832         0.138917     -0.074717     -0.059008
      2.47614     11.25932     16.97390         0.158965     -0.184575     -0.258119
      5.89058      5.75274     16.31088         0.276140      0.477885      0.350799
      7.29985      5.86684     15.71564         0.030282      0.084049     -0.151656
      8.83197      4.68335     14.91012         0.142185      0.004768     -0.010482
     10.24123      4.79745     14.31488        -0.170300      0.161560      0.126893
      9.35474      7.75277     16.31088        -0.567323     -0.329315      0.110001
     10.76400      7.86687     15.71564        -3.889971     -4.502110     -1.813878
     -4.37748      8.75279     16.31088         0.926981      1.890315      1.300620
     -2.96822      8.86689     15.71564         0.489299     -0.082185     -0.394704
     -0.67927      9.08372     16.43612         0.182469     -0.127211      0.476762
      0.73007      9.19769     15.84088        -0.146757      0.476700      0.337081
      1.57929      7.85214     15.17828        -0.657212     -0.375449      0.218269
      2.98855      7.96625     14.58303         0.016116      0.349565      0.087737
      5.46052     11.33687     16.17028         0.116276      0.682887      0.531926
      6.86986     11.45084     15.57504         0.196551      0.836251      0.466427
      2.83909      6.73401     13.67038        -0.290781     -1.079219     -0.792390
      4.24835      6.84811     13.07493         0.017340     -0.093182     -0.298381
      3.61107      3.96658     14.52915        -1.293511      0.926952     -1.065370
      5.02018      4.08069     13.93391         0.078791      0.250377     -0.980125
     -0.83701      6.09264     14.36519        -0.067685      0.132747     -0.001467
      0.57226      6.20674     13.76994        -0.096807     -0.004165     -0.180469
      5.04345      9.85218     15.17828         0.504551     -1.429344     -1.466066
      6.45279      9.96615     14.58303        -1.320791     -1.922729     -0.972270
      7.70919      1.54804     11.65839        -0.780018      0.115291     -0.084435
      9.11845      1.66214     11.06314        -0.547865      0.608581      0.111215
     -1.46099      9.96655     14.52915        -0.382431      0.282572      0.025177
     -0.05173     10.08065     13.93391        -0.235065      0.023524     -0.049510
     11.27487      3.62936     12.15639        -0.131644      0.071298      0.095248
     12.68413      3.74347     11.56114        -0.019285      0.002622      0.026810
      0.01469      2.36029     16.31088        -0.094130      0.112677      0.074675
      1.42395      2.47439     15.71564        -0.266401      0.056222      0.252059
      2.53452      2.00231     14.45127        -0.247198     -0.030833     -0.300759
      3.94378      2.11641     13.85603         0.314024      0.244936      0.432987
      3.47869      4.36032     16.31088        -0.314578      0.305162      1.221280
      4.88803      4.47429     15.71564         0.447724     -0.143977     -0.055188
     -4.17698     13.09262     14.36519        -0.104580      0.436367     -0.241241
     -2.76772     13.20672     13.76994        -0.181921     -0.049770     -0.079610
     -4.61602      9.74852     13.63018        -0.032442      0.081328     -0.087197
     -3.20668      9.86249     13.03473        -0.072358      0.124742     -0.245954
      1.88595     11.66873     17.62576        -0.022911      0.061467      0.176314
      3.29521     11.78283     17.03052        -0.253219      0.071913      0.081882
 -----------------------------------------------------------------------------------
    total drift:                               -0.044654      0.036930      0.371603


--------------------------------------------------------------------------------------------------------



  FREE ENERGIE OF THE ION-ELECTRON SYSTEM (eV)
  ---------------------------------------------------
  free  energy   TOTEN  =     -1214.54271440 eV

  energy  without entropy=    -1214.51697074  energy(sigma->0) =    -1214.52984257
 


--------------------------------------------------------------------------------------------------------


    POTLOK:  cpu time      1.0249: real time      1.0261


--------------------------------------------------------------------------------------------------------


           RANDOM_SEED =         485797559                0                0
           RANDOM_SEED =         485797559                0                0
   IONSTEP:  cpu time      0.0079: real time      0.0135

  ENERGY OF THE ELECTRON-ION-THERMOSTAT SYSTEM (eV)
  ---------------------------------------------------
% ion-electron   TOTEN  =     -1214.542714  see above
  kinetic energy EKIN   =        55.398470
  kin. lattice  EKIN_LAT=         0.000000  (temperature 3296.76 K)
  nose potential ES     =         0.000000
  nose kinetic   EPS    =         0.000000
  ---------------------------------------------------
  total energy   ETOTAL =     -1159.144245 eV

  maximum distance moved by ions :      0.21E+01


 mean value of Nose-termostat <S>:     1.000 mean value of <T> :  3296.762
 mean temperature <T/S>/<1/S>  :  3296.762

    WAVPRE:  cpu time      0.0920: real time      0.0968
    FEWALD:  cpu time      0.0047: real time      0.0047

 real space projection operators:
  total allocation   :      40135.88 KBytes
  max/ min on nodes  :      10279.09       9788.06

    ORTHCH:  cpu time      0.3653: real time      0.3653
     LOOP+:  cpu time    456.2163: real time    456.5512


--------------------------------------- Ionic step        2  -------------------------------------------




--------------------------------------- Iteration      2(   1)  ---------------------------------------


    POTLOK:  cpu time      0.0595: real time      0.0699
    SETDIJ:  cpu time      0.9690: real time      0.9692
     EDDAV:  cpu time      3.8855: real time      3.8879
       DOS:  cpu time      0.0011: real time      0.0011
    CHARGE:  cpu time      0.2639: real time      0.2639
    MIXING:  cpu time      0.0017: real time      0.0017
    --------------------------------------------
      LOOP:  cpu time      5.1806: real time      5.1937

 eigenvalue-minimisations  :  3984
 total energy-change (2. order) : 0.6533206E+03  (-0.4052494E+04)
 number of electron    1168.0000018 magnetization      28.0137544
 augmentation part       34.8967896 magnetization      30.3288883

 Broyden mixing:
  rms(total) = 0.28250E+02    rms(broyden)= 0.28248E+02
  rms(prec ) = 0.29058E+02
  weight for this iteration     100.00

 Free energy of the ion-electron system (eV)
  ---------------------------------------------------
  alpha Z        PSCENC =      2397.92104513
  Ewald energy   TEWEN  =    142375.48984807
  -Hartree energ DENC   =   -224958.02488675
  -exchange      EXHF   =         0.00000000
  -V(xc)+E(xc)   XCENC  =      3547.10412995
  PAW double counting   =     86654.55352880   -85853.06674228
  entropy T*S    EENTRO =        -0.02786656
  eigenvalues    EBANDS =    -12480.92256489
  atomic energy  EATOM  =     87776.77885653
  Solvation  Ediel_sol  =         0.00000000
  ---------------------------------------------------
  free energy    TOTEN  =      -540.19465201 eV

  energy without entropy =     -540.16678545  energy(sigma->0) =     -540.18071873


--------------------------------------------------------------------------------------------------------




--------------------------------------- Iteration      2(   2)  ---------------------------------------


    POTLOK:  cpu time      0.0588: real time      0.0591
    SETDIJ:  cpu time      0.9677: real time      0.9678
    EDDIAG:  cpu time      0.6964: real time      0.6965
  RMM-DIIS:  cpu time      2.8160: real time      2.8175
    ORTHCH:  cpu time      0.1367: real time      0.1367
       DOS:  cpu time      0.0007: real time      0.0007
    CHARGE:  cpu time      0.2653: real time      0.2655
    MIXING:  cpu time      0.0017: real time      0.0017
    --------------------------------------------
      LOOP:  cpu time      4.9433: real time      4.9455

 eigenvalue-minimisations  :  4712
 total energy-change (2. order) :-0.3501332E+03  (-0.5540236E+03)
 number of electron    1168.0000010 magnetization      27.8324288
 augmentation part       57.4384030 magnetization      25.3152354

 Broyden mixing:
  rms(total) = 0.43144E+02    rms(broyden)= 0.43144E+02
  rms(prec ) = 0.45738E+02
  weight for this iteration     100.00

 eigenvalues of (default mixing * dielectric matrix)
  average eigenvalue GAMMA=   0.0497
  0.0497

 Free energy of the ion-electron system (eV)
  ---------------------------------------------------
  alpha Z        PSCENC =      2397.92104513
  Ewald energy   TEWEN  =    142375.48984807
  -Hartree energ DENC   =   -226265.37833424
  -exchange      EXHF   =         0.00000000
  -V(xc)+E(xc)   XCENC  =      3566.96859484
  PAW double counting   =     93179.12045080   -92405.18328805
  entropy T*S    EENTRO =        -0.20811046
  eigenvalues    EBANDS =    -11515.83687060
  atomic energy  EATOM  =     87776.77885653
  Solvation  Ediel_sol  =         0.00000000
  ---------------------------------------------------
  free energy    TOTEN  =      -890.32780798 eV

  energy without entropy =     -890.11969752  energy(sigma->0) =     -890.22375275


--------------------------------------------------------------------------------------------------------




--------------------------------------- Iteration      2(   3)  ---------------------------------------


    POTLOK:  cpu time      0.0571: real time      0.0574
    SETDIJ:  cpu time      0.9693: real time      0.9693
    EDDIAG:  cpu time      0.6995: real time      0.6997
  RMM-DIIS:  cpu time      3.0501: real time      3.0513
    ORTHCH:  cpu time      0.1393: real time      0.1393
       DOS:  cpu time      0.0009: real time      0.0009
    CHARGE:  cpu time      0.2621: real time      0.2630
    MIXING:  cpu time      0.0018: real time      0.0018
    --------------------------------------------
      LOOP:  cpu time      5.1800: real time      5.1828

 eigenvalue-minimisations  :  5079
 total energy-change (2. order) :-0.5378116E+02  (-0.2155952E+03)
 number of electron    1168.0000010 magnetization      27.9854643
 augmentation part       30.1644723 magnetization      15.5162475

 Broyden mixing:
  rms(total) = 0.35140E+02    rms(broyden)= 0.35140E+02
  rms(prec ) = 0.36261E+02
  weight for this iteration     100.00

 eigenvalues of (default mixing * dielectric matrix)
  average eigenvalue GAMMA=   0.2177
  0.2177  0.2177

 Free energy of the ion-electron system (eV)
  ---------------------------------------------------
  alpha Z        PSCENC =      2397.92104513
  Ewald energy   TEWEN  =    142375.48984807
  -Hartree energ DENC   =   -226420.13995531
  -exchange      EXHF   =         0.00000000
  -V(xc)+E(xc)   XCENC  =      3558.73385466
  PAW double counting   =     93799.53225896   -93030.97126749
  entropy T*S    EENTRO =        -0.09164264
  eigenvalues    EBANDS =    -11401.36196398
  atomic energy  EATOM  =     87776.77885653
  Solvation  Ediel_sol  =         0.00000000
  ---------------------------------------------------
  free energy    TOTEN  =      -944.10896607 eV

  energy without entropy =     -944.01732343  energy(sigma->0) =     -944.06314475


--------------------------------------------------------------------------------------------------------




--------------------------------------- Iteration      2(   4)  ---------------------------------------


    POTLOK:  cpu time      0.0594: real time      0.0596
    SETDIJ:  cpu time      0.9574: real time      0.9578
    EDDIAG:  cpu time      0.6945: real time      0.6947
  RMM-DIIS:  cpu time      3.0738: real time      3.0748
    ORTHCH:  cpu time      0.1376: real time      0.1381
       DOS:  cpu time      0.0010: real time      0.0010
    CHARGE:  cpu time      0.2631: real time      0.2634
    MIXING:  cpu time      0.0019: real time      0.0019
    --------------------------------------------
      LOOP:  cpu time      5.1886: real time      5.1912

 eigenvalue-minimisations  :  5125
 total energy-change (2. order) :-0.1105809E+04  (-0.1548204E+03)
 number of electron    1168.0000007 magnetization      28.1608182
 augmentation part       82.8141586 magnetization      19.8612709

 Broyden mixing:
  rms(total) = 0.70296E+02    rms(broyden)= 0.70296E+02
  rms(prec ) = 0.73456E+02
  weight for this iteration     100.00

 eigenvalues of (default mixing * dielectric matrix)
  average eigenvalue GAMMA=   0.2023
  0.2720  0.2720  0.0629

 Free energy of the ion-electron system (eV)
  ---------------------------------------------------
  alpha Z        PSCENC =      2397.92104513
  Ewald energy   TEWEN  =    142375.48984807
  -Hartree energ DENC   =   -226113.40714124
  -exchange      EXHF   =         0.00000000
  -V(xc)+E(xc)   XCENC  =      3551.98084114
  PAW double counting   =     94573.24114361   -93774.60791341
  entropy T*S    EENTRO =        -0.08504654
  eigenvalues    EBANDS =    -12837.22913443
  atomic energy  EATOM  =     87776.77885653
  Solvation  Ediel_sol  =         0.00000000
  ---------------------------------------------------
  free energy    TOTEN  =     -2049.91750114 eV

  energy without entropy =    -2049.83245460  energy(sigma->0) =    -2049.87497787


--------------------------------------------------------------------------------------------------------




--------------------------------------- Iteration      2(   5)  ---------------------------------------


    POTLOK:  cpu time      0.0587: real time      0.0587
    SETDIJ:  cpu time      0.9709: real time      0.9711
    EDDIAG:  cpu time      0.7001: real time      0.7003
  RMM-DIIS:  cpu time      3.1528: real time      3.1545
    ORTHCH:  cpu time      0.1397: real time      0.1397
       DOS:  cpu time      0.0007: real time      0.0007
    CHARGE:  cpu time      0.2684: real time      0.2686
    MIXING:  cpu time      0.0022: real time      0.0022
    --------------------------------------------
      LOOP:  cpu time      5.2935: real time      5.2957

 eigenvalue-minimisations  :  5240
 total energy-change (2. order) :-0.1098253E+02  (-0.3828786E+02)
 number of electron    1168.0000010 magnetization      27.2004788
 augmentation part       71.0873186 magnetization      30.2397161

 Broyden mixing:
  rms(total) = 0.50934E+02    rms(broyden)= 0.50934E+02
  rms(prec ) = 0.54083E+02
  weight for this iteration     100.00

 eigenvalues of (default mixing * dielectric matrix)
  average eigenvalue GAMMA=   0.2309
  0.3158  0.3158  0.1460  0.1460

 Free energy of the ion-electron system (eV)
  ---------------------------------------------------
  alpha Z        PSCENC =      2397.92104513
  Ewald energy   TEWEN  =    142375.48984807
  -Hartree energ DENC   =   -226012.47074347
  -exchange      EXHF   =         0.00000000
  -V(xc)+E(xc)   XCENC  =      3551.80762931
  PAW double counting   =     94495.07991568   -93698.02243110
  entropy T*S    EENTRO =        -0.12184846
  eigenvalues    EBANDS =    -12947.36230029
  atomic energy  EATOM  =     87776.77885653
  Solvation  Ediel_sol  =         0.00000000
  ---------------------------------------------------
  free energy    TOTEN  =     -2060.90002861 eV

  energy without entropy =    -2060.77818014  energy(sigma->0) =    -2060.83910438


--------------------------------------------------------------------------------------------------------




--------------------------------------- Iteration      2(   6)  ---------------------------------------


    POTLOK:  cpu time      0.0576: real time      0.0576
    SETDIJ:  cpu time      0.9678: real time      0.9682
    EDDIAG:  cpu time      0.7197: real time      0.7201
  RMM-DIIS:  cpu time      3.1715: real time      3.1732
    ORTHCH:  cpu time      0.1356: real time      0.1356
       DOS:  cpu time      0.0008: real time      0.0008
    CHARGE:  cpu time      0.2650: real time      0.2653
    MIXING:  cpu time      0.0020: real time      0.0020
    --------------------------------------------
      LOOP:  cpu time      5.3200: real time      5.3229

 eigenvalue-minimisations  :  5150
 total energy-change (2. order) : 0.1012985E+03  (-0.9251972E+02)
 number of electron    1168.0000012 magnetization      26.7924916
 augmentation part       77.0574823 magnetization      27.6088491

 Broyden mixing:
  rms(total) = 0.52858E+02    rms(broyden)= 0.52857E+02
  rms(prec ) = 0.56031E+02
  weight for this iteration     100.00

 eigenvalues of (default mixing * dielectric matrix)
  average eigenvalue GAMMA=   0.2311
  0.3184  0.3184  0.2107  0.2107  0.0974

 Free energy of the ion-electron system (eV)
  ---------------------------------------------------
  alpha Z        PSCENC =      2397.92104513
  Ewald energy   TEWEN  =    142375.48984807
  -Hartree energ DENC   =   -226441.71839770
  -exchange      EXHF   =         0.00000000
  -V(xc)+E(xc)   XCENC  =      3566.05255063
  PAW double counting   =     93883.67730967   -93091.18715060
  entropy T*S    EENTRO =        -0.04735235
  eigenvalues    EBANDS =    -12426.56818851
  atomic energy  EATOM  =     87776.77885653
  Solvation  Ediel_sol  =         0.00000000
  ---------------------------------------------------
  free energy    TOTEN  =     -1959.60147914 eV

  energy without entropy =    -1959.55412678  energy(sigma->0) =    -1959.57780296


--------------------------------------------------------------------------------------------------------




--------------------------------------- Iteration      2(   7)  ---------------------------------------


    POTLOK:  cpu time      0.0580: real time      0.0580
    SETDIJ:  cpu time      0.9768: real time      0.9778
    EDDIAG:  cpu time      0.6853: real time      0.6855
  RMM-DIIS:  cpu time      3.0725: real time      3.0736
    ORTHCH:  cpu time      0.1374: real time      0.1374
       DOS:  cpu time      0.0009: real time      0.0009
    CHARGE:  cpu time      0.2639: real time      0.2649
    MIXING:  cpu time      0.0021: real time      0.0021
    --------------------------------------------
      LOOP:  cpu time      5.1968: real time      5.2000

 eigenvalue-minimisations  :  5061
 total energy-change (2. order) : 0.3619910E+03  (-0.5468281E+02)
 number of electron    1168.0000012 magnetization      25.8937747
 augmentation part       71.0378734 magnetization      23.2772731

 Broyden mixing:
  rms(total) = 0.34609E+02    rms(broyden)= 0.34608E+02
  rms(prec ) = 0.38459E+02
  weight for this iteration     100.00

 eigenvalues of (default mixing * dielectric matrix)
  average eigenvalue GAMMA=   0.2793
  0.3432  0.3432  0.3637  0.3637  0.1104  0.1519

 Free energy of the ion-electron system (eV)
  ---------------------------------------------------
  alpha Z        PSCENC =      2397.92104513
  Ewald energy   TEWEN  =    142375.48984807
  -Hartree energ DENC   =   -226331.72787792
  -exchange      EXHF   =         0.00000000
  -V(xc)+E(xc)   XCENC  =      3571.70816499
  PAW double counting   =     93889.18469953   -93102.64809575
  entropy T*S    EENTRO =        -0.07956436
  eigenvalues    EBANDS =    -12174.23756944
  atomic energy  EATOM  =     87776.77885653
  Solvation  Ediel_sol  =         0.00000000
  ---------------------------------------------------
  free energy    TOTEN  =     -1597.61049322 eV

  energy without entropy =    -1597.53092886  energy(sigma->0) =    -1597.57071104


--------------------------------------------------------------------------------------------------------




--------------------------------------- Iteration      2(   8)  ---------------------------------------


    POTLOK:  cpu time      0.0609: real time      0.0612
    SETDIJ:  cpu time      0.9675: real time      0.9677
    EDDIAG:  cpu time      0.6847: real time      0.6848
  RMM-DIIS:  cpu time      2.9467: real time      2.9478
    ORTHCH:  cpu time      0.1377: real time      0.1378
       DOS:  cpu time      0.0009: real time      0.0009
    CHARGE:  cpu time      0.2626: real time      0.2633
    MIXING:  cpu time      0.0025: real time      0.0025
    --------------------------------------------
      LOOP:  cpu time      5.0635: real time      5.0658

 eigenvalue-minimisations  :  4900
 total energy-change (2. order) : 0.3106921E+03  (-0.5403525E+02)
 number of electron    1168.0000014 magnetization      25.5853355
 augmentation part       61.3278586 magnetization      14.4126137

 Broyden mixing:
  rms(total) = 0.28745E+02    rms(broyden)= 0.28744E+02
  rms(prec ) = 0.31641E+02
  weight for this iteration     100.00

 eigenvalues of (default mixing * dielectric matrix)
  average eigenvalue GAMMA=   0.3135
  0.5499  0.5499  0.3022  0.3022  0.1915  0.1915  0.1074

 Free energy of the ion-electron system (eV)
  ---------------------------------------------------
  alpha Z        PSCENC =      2397.92104513
  Ewald energy   TEWEN  =    142375.48984807
  -Hartree energ DENC   =   -226355.86964475
  -exchange      EXHF   =         0.00000000
  -V(xc)+E(xc)   XCENC  =      3573.28716574
  PAW double counting   =     93645.60193244   -92871.99760773
  entropy T*S    EENTRO =        -0.10796787
  eigenvalues    EBANDS =    -11828.02200165
  atomic energy  EATOM  =     87776.77885653
  Solvation  Ediel_sol  =         0.00000000
  ---------------------------------------------------
  free energy    TOTEN  =     -1286.91837408 eV

  energy without entropy =    -1286.81040621  energy(sigma->0) =    -1286.86439015


--------------------------------------------------------------------------------------------------------




--------------------------------------- Iteration      2(   9)  ---------------------------------------


    POTLOK:  cpu time      0.0584: real time      0.0584
    SETDIJ:  cpu time      0.9783: real time      0.9786
    EDDIAG:  cpu time      0.6969: real time      0.6969
  RMM-DIIS:  cpu time      2.9677: real time      2.9692
    ORTHCH:  cpu time      0.1362: real time      0.1366
       DOS:  cpu time      0.0010: real time      0.0010
    CHARGE:  cpu time      0.2620: real time      0.2620
    MIXING:  cpu time      0.0031: real time      0.0031
    --------------------------------------------
      LOOP:  cpu time      5.1036: real time      5.1059

 eigenvalue-minimisations  :  4954
 total energy-change (2. order) : 0.3001115E+03  (-0.4732903E+02)
 number of electron    1168.0000014 magnetization      25.3758372
 augmentation part       37.1078411 magnetization      10.5497376

 Broyden mixing:
  rms(total) = 0.21081E+02    rms(broyden)= 0.21080E+02
  rms(prec ) = 0.22401E+02
  weight for this iteration     100.00

 eigenvalues of (default mixing * dielectric matrix)
  average eigenvalue GAMMA=   0.3221
  0.6326  0.6326  0.3065  0.3065  0.2052  0.2052  0.1077  0.1807

 Free energy of the ion-electron system (eV)
  ---------------------------------------------------
  alpha Z        PSCENC =      2397.92104513
  Ewald energy   TEWEN  =    142375.48984807
  -Hartree energ DENC   =   -226503.53844882
  -exchange      EXHF   =         0.00000000
  -V(xc)+E(xc)   XCENC  =      3563.94126861
  PAW double counting   =     93490.22117007   -92726.14366920
  entropy T*S    EENTRO =        -0.08500454
  eigenvalues    EBANDS =    -11361.39198129
  atomic energy  EATOM  =     87776.77885653
  Solvation  Ediel_sol  =         0.00000000
  ---------------------------------------------------
  free energy    TOTEN  =      -986.80691544 eV

  energy without entropy =     -986.72191090  energy(sigma->0) =     -986.76441317


--------------------------------------------------------------------------------------------------------




--------------------------------------- Iteration      2(  10)  ---------------------------------------


    POTLOK:  cpu time      0.0580: real time      0.0580
    SETDIJ:  cpu time      0.9767: real time      0.9768
    EDDIAG:  cpu time      0.6836: real time      0.6842
  RMM-DIIS:  cpu time      2.8944: real time      2.8955
    ORTHCH:  cpu time      0.1387: real time      0.1391
       DOS:  cpu time      0.0009: real time      0.0009
    CHARGE:  cpu time      0.2606: real time      0.2606
    MIXING:  cpu time      0.0023: real time      0.0023
    --------------------------------------------
      LOOP:  cpu time      5.0152: real time      5.0174

 eigenvalue-minimisations  :  4942
 total energy-change (2. order) : 0.7389191E+02  (-0.2989226E+02)
 number of electron    1168.0000014 magnetization      25.6055851
 augmentation part       41.3360197 magnetization       5.8746409

 Broyden mixing:
  rms(total) = 0.14705E+02    rms(broyden)= 0.14703E+02
  rms(prec ) = 0.16396E+02
  weight for this iteration     100.00

 eigenvalues of (default mixing * dielectric matrix)
  average eigenvalue GAMMA=   0.3474
  0.7510  0.7510  0.3246  0.3246  0.2494  0.2494  0.1074  0.1848  0.1848

 Free energy of the ion-electron system (eV)
  ---------------------------------------------------
  alpha Z        PSCENC =      2397.92104513
  Ewald energy   TEWEN  =    142375.48984807
  -Hartree energ DENC   =   -226461.81126666
  -exchange      EXHF   =         0.00000000
  -V(xc)+E(xc)   XCENC  =      3567.21797043
  PAW double counting   =     93643.10666798   -92881.10373411
  entropy T*S    EENTRO =        -0.08178570
  eigenvalues    EBANDS =    -11330.43260798
  atomic energy  EATOM  =     87776.77885653
  Solvation  Ediel_sol  =         0.00000000
  ---------------------------------------------------
  free energy    TOTEN  =      -912.91500632 eV

  energy without entropy =     -912.83322061  energy(sigma->0) =     -912.87411346


--------------------------------------------------------------------------------------------------------




--------------------------------------- Iteration      2(  11)  ---------------------------------------


    POTLOK:  cpu time      0.0590: real time      0.0590
    SETDIJ:  cpu time      0.9780: real time      0.9782
    EDDIAG:  cpu time      0.6836: real time      0.6839
  RMM-DIIS:  cpu time      2.9408: real time      2.9422
    ORTHCH:  cpu time      0.1383: real time      0.1388
       DOS:  cpu time      0.0008: real time      0.0008
    CHARGE:  cpu time      0.2622: real time      0.2622
    MIXING:  cpu time      0.0029: real time      0.0029
    --------------------------------------------
      LOOP:  cpu time      5.0656: real time      5.0680

 eigenvalue-minimisations  :  4944
 total energy-change (2. order) : 0.1127794E+02  (-0.2190993E+02)
 number of electron    1168.0000016 magnetization      25.1474483
 augmentation part       32.8189872 magnetization      14.2278820

 Broyden mixing:
  rms(total) = 0.14372E+02    rms(broyden)= 0.14370E+02
  rms(prec ) = 0.15389E+02
  weight for this iteration     100.00

 eigenvalues of (default mixing * dielectric matrix)
  average eigenvalue GAMMA=   0.3345
  0.6909  0.6909  0.3365  0.3365  0.2951  0.2951  0.1075  0.1993  0.1993  0.1943

 Free energy of the ion-electron system (eV)
  ---------------------------------------------------
  alpha Z        PSCENC =      2397.92104513
  Ewald energy   TEWEN  =    142375.48984807
  -Hartree energ DENC   =   -226485.03961654
  -exchange      EXHF   =         0.00000000
  -V(xc)+E(xc)   XCENC  =      3571.18481746
  PAW double counting   =     93632.53081264   -92860.23012653
  entropy T*S    EENTRO =        -0.17341076
  eigenvalues    EBANDS =    -11310.09929256
  atomic energy  EATOM  =     87776.77885653
  Solvation  Ediel_sol  =         0.00000000
  ---------------------------------------------------
  free energy    TOTEN  =      -901.63706656 eV

  energy without entropy =     -901.46365580  energy(sigma->0) =     -901.55036118


--------------------------------------------------------------------------------------------------------




--------------------------------------- Iteration      2(  12)  ---------------------------------------


    POTLOK:  cpu time      0.0586: real time      0.0586
    SETDIJ:  cpu time      0.9762: real time      0.9763
    EDDIAG:  cpu time      0.6816: real time      0.6818
  RMM-DIIS:  cpu time      2.9055: real time      2.9068
    ORTHCH:  cpu time      0.1376: real time      0.1376
       DOS:  cpu time      0.0007: real time      0.0007
    CHARGE:  cpu time      0.2625: real time      0.2625
    MIXING:  cpu time      0.0028: real time      0.0028
    --------------------------------------------
      LOOP:  cpu time      5.0255: real time      5.0273

 eigenvalue-minimisations  :  4954
 total energy-change (2. order) : 0.4265449E+02  (-0.7749154E+01)
 number of electron    1168.0000015 magnetization      24.8786188
 augmentation part       27.6738649 magnetization       7.1407863

 Broyden mixing:
  rms(total) = 0.11373E+02    rms(broyden)= 0.11371E+02
  rms(prec ) = 0.11720E+02
  weight for this iteration     100.00

 eigenvalues of (default mixing * dielectric matrix)
  average eigenvalue GAMMA=   0.3553
  0.9545  0.4907  0.4907  0.3347  0.3347  0.4291  0.2121  0.2121  0.1074  0.1714
  0.1714

 Free energy of the ion-electron system (eV)
  ---------------------------------------------------
  alpha Z        PSCENC =      2397.92104513
  Ewald energy   TEWEN  =    142375.48984807
  -Hartree energ DENC   =   -226443.69244470
  -exchange      EXHF   =         0.00000000
  -V(xc)+E(xc)   XCENC  =      3567.04490474
  PAW double counting   =     93952.91895924   -93181.08446853
  entropy T*S    EENTRO =        -0.14662193
  eigenvalues    EBANDS =    -11304.21265715
  atomic energy  EATOM  =     87776.77885653
  Solvation  Ediel_sol  =         0.00000000
  ---------------------------------------------------
  free energy    TOTEN  =      -858.98257860 eV

  energy without entropy =     -858.83595667  energy(sigma->0) =     -858.90926763


--------------------------------------------------------------------------------------------------------




--------------------------------------- Iteration      2(  13)  ---------------------------------------


    POTLOK:  cpu time      0.0589: real time      0.0589
    SETDIJ:  cpu time      0.9666: real time      0.9672
    EDDIAG:  cpu time      0.6824: real time      0.6827
  RMM-DIIS:  cpu time      2.9245: real time      2.9273
    ORTHCH:  cpu time      0.1366: real time      0.1368
       DOS:  cpu time      0.0008: real time      0.0008
    CHARGE:  cpu time      0.2671: real time      0.2671
    MIXING:  cpu time      0.0027: real time      0.0027
    --------------------------------------------
      LOOP:  cpu time      5.0397: real time      5.0436

 eigenvalue-minimisations  :  4984
 total energy-change (2. order) :-0.5006547E+02  (-0.1145622E+02)
 number of electron    1168.0000014 magnetization      24.7011718
 augmentation part       37.2940112 magnetization      10.4287227

 Broyden mixing:
  rms(total) = 0.13636E+02    rms(broyden)= 0.13635E+02
  rms(prec ) = 0.15098E+02
  weight for this iteration     100.00

 eigenvalues of (default mixing * dielectric matrix)
  average eigenvalue GAMMA=   0.3540
  1.0550  0.5443  0.5443  0.4398  0.3277  0.3277  0.2176  0.2176  0.1075  0.1589
  0.1535  0.1535

 Free energy of the ion-electron system (eV)
  ---------------------------------------------------
  alpha Z        PSCENC =      2397.92104513
  Ewald energy   TEWEN  =    142375.48984807
  -Hartree energ DENC   =   -226311.76946081
  -exchange      EXHF   =         0.00000000
  -V(xc)+E(xc)   XCENC  =      3566.62588084
  PAW double counting   =     94283.79226946   -93509.81491286
  entropy T*S    EENTRO =        -0.07802592
  eigenvalues    EBANDS =    -11487.99355028
  atomic energy  EATOM  =     87776.77885653
  Solvation  Ediel_sol  =         0.00000000
  ---------------------------------------------------
  free energy    TOTEN  =      -909.04804985 eV

  energy without entropy =     -908.97002392  energy(sigma->0) =     -909.00903688


--------------------------------------------------------------------------------------------------------




--------------------------------------- Iteration      2(  14)  ---------------------------------------


    POTLOK:  cpu time      0.0588: real time      0.0588
    SETDIJ:  cpu time      0.9772: real time      0.9778
    EDDIAG:  cpu time      0.6827: real time      0.6830
  RMM-DIIS:  cpu time      3.0153: real time      3.0168
    ORTHCH:  cpu time      0.1367: real time      0.1370
       DOS:  cpu time      0.0010: real time      0.0010
    CHARGE:  cpu time      0.2620: real time      0.2620
    MIXING:  cpu time      0.0035: real time      0.0035
    --------------------------------------------
      LOOP:  cpu time      5.1373: real time      5.1400

 eigenvalue-minimisations  :  5046
 total energy-change (2. order) : 0.1584197E+02  (-0.9808587E+01)
 number of electron    1168.0000015 magnetization      24.6641781
 augmentation part       34.3771355 magnetization       6.5783155

 Broyden mixing:
  rms(total) = 0.11896E+02    rms(broyden)= 0.11895E+02
  rms(prec ) = 0.12855E+02
  weight for this iteration     100.00

 eigenvalues of (default mixing * dielectric matrix)
  average eigenvalue GAMMA=   0.3571
  1.0602  0.5984  0.5984  0.5682  0.3235  0.3235  0.2330  0.2330  0.1667  0.1667
  0.1492  0.1073  0.1137

 Free energy of the ion-electron system (eV)
  ---------------------------------------------------
  alpha Z        PSCENC =      2397.92104513
  Ewald energy   TEWEN  =    142375.48984807
  -Hartree energ DENC   =   -226251.74257716
  -exchange      EXHF   =         0.00000000
  -V(xc)+E(xc)   XCENC  =      3563.73916017
  PAW double counting   =     94507.26222709   -93731.13080736
  entropy T*S    EENTRO =        -0.12666182
  eigenvalues    EBANDS =    -11531.39717161
  atomic energy  EATOM  =     87776.77885653
  Solvation  Ediel_sol  =         0.00000000
  ---------------------------------------------------
  free energy    TOTEN  =      -893.20608096 eV

  energy without entropy =     -893.07941914  energy(sigma->0) =     -893.14275005


--------------------------------------------------------------------------------------------------------




--------------------------------------- Iteration      2(  15)  ---------------------------------------


    POTLOK:  cpu time      0.0574: real time      0.0574
    SETDIJ:  cpu time      0.9722: real time      0.9727
    EDDIAG:  cpu time      0.6826: real time      0.6829
  RMM-DIIS:  cpu time      3.0262: real time      3.0277
    ORTHCH:  cpu time      0.1373: real time      0.1373
       DOS:  cpu time      0.0008: real time      0.0008
    CHARGE:  cpu time      0.2633: real time      0.2635
    MIXING:  cpu time      0.0039: real time      0.0039
    --------------------------------------------
      LOOP:  cpu time      5.1438: real time      5.1462

 eigenvalue-minimisations  :  5080
 total energy-change (2. order) :-0.1177889E+02  (-0.1008544E+02)
 number of electron    1168.0000014 magnetization      24.8715466
 augmentation part       40.2156446 magnetization       1.5586253

 Broyden mixing:
  rms(total) = 0.12719E+02    rms(broyden)= 0.12718E+02
  rms(prec ) = 0.14137E+02
  weight for this iteration     100.00

 eigenvalues of (default mixing * dielectric matrix)
  average eigenvalue GAMMA=   0.3507
  1.0705  0.6187  0.6187  0.6453  0.3221  0.3221  0.2366  0.2366  0.1764  0.1764
  0.1073  0.1487  0.1382  0.0922

 Free energy of the ion-electron system (eV)
  ---------------------------------------------------
  alpha Z        PSCENC =      2397.92104513
  Ewald energy   TEWEN  =    142375.48984807
  -Hartree energ DENC   =   -226143.17009501
  -exchange      EXHF   =         0.00000000
  -V(xc)+E(xc)   XCENC  =      3561.90852525
  PAW double counting   =     94650.90958199   -93870.14159551
  entropy T*S    EENTRO =        -0.17607189
  eigenvalues    EBANDS =    -11654.50506384
  atomic energy  EATOM  =     87776.77885653
  Solvation  Ediel_sol  =         0.00000000
  ---------------------------------------------------
  free energy    TOTEN  =      -904.98496928 eV

  energy without entropy =     -904.80889739  energy(sigma->0) =     -904.89693334


--------------------------------------------------------------------------------------------------------




--------------------------------------- Iteration      2(  16)  ---------------------------------------


    POTLOK:  cpu time      0.0638: real time      0.0638
    SETDIJ:  cpu time      0.9791: real time      0.9797
    EDDIAG:  cpu time      0.6825: real time      0.6827
  RMM-DIIS:  cpu time      2.9827: real time      2.9847
    ORTHCH:  cpu time      0.1377: real time      0.1377
       DOS:  cpu time      0.0010: real time      0.0010
    CHARGE:  cpu time      0.2634: real time      0.2635
    MIXING:  cpu time      0.0041: real time      0.0041
    --------------------------------------------
      LOOP:  cpu time      5.1143: real time      5.1172

 eigenvalue-minimisations  :  5087
 total energy-change (2. order) :-0.3520800E+01  (-0.7894369E+01)
 number of electron    1168.0000014 magnetization      24.9797026
 augmentation part       35.0918561 magnetization       3.0697495

 Broyden mixing:
  rms(total) = 0.11046E+02    rms(broyden)= 0.11045E+02
  rms(prec ) = 0.12005E+02
  weight for this iteration     100.00

 eigenvalues of (default mixing * dielectric matrix)
  average eigenvalue GAMMA=   0.3347
  1.0414  0.6242  0.6242  0.6786  0.3212  0.3212  0.2395  0.2395  0.1825  0.1825
  0.1586  0.1082  0.1091  0.1091  0.0806

 Free energy of the ion-electron system (eV)
  ---------------------------------------------------
  alpha Z        PSCENC =      2397.92104513
  Ewald energy   TEWEN  =    142375.48984807
  -Hartree energ DENC   =   -226092.72295649
  -exchange      EXHF   =         0.00000000
  -V(xc)+E(xc)   XCENC  =      3561.29114565
  PAW double counting   =     94750.88307919   -93968.47944363
  entropy T*S    EENTRO =        -0.13172630
  eigenvalues    EBANDS =    -11709.53561699
  atomic energy  EATOM  =     87776.77885653
  Solvation  Ediel_sol  =         0.00000000
  ---------------------------------------------------
  free energy    TOTEN  =      -908.50576884 eV

  energy without entropy =     -908.37404254  energy(sigma->0) =     -908.43990569


--------------------------------------------------------------------------------------------------------




--------------------------------------- Iteration      2(  17)  ---------------------------------------


    POTLOK:  cpu time      0.0597: real time      0.0597
    SETDIJ:  cpu time      0.9750: real time      0.9761
    EDDIAG:  cpu time      0.6828: real time      0.6830
  RMM-DIIS:  cpu time      3.1049: real time      3.1063
    ORTHCH:  cpu time      0.1445: real time      0.1445
       DOS:  cpu time      0.0010: real time      0.0010
    CHARGE:  cpu time      0.2633: real time      0.2641
    MIXING:  cpu time      0.0032: real time      0.0032
    --------------------------------------------
      LOOP:  cpu time      5.2342: real time      5.2378

 eigenvalue-minimisations  :  5223
 total energy-change (2. order) :-0.2596832E+01  (-0.7086933E+01)
 number of electron    1168.0000014 magnetization      25.1046652
 augmentation part       35.5874259 magnetization       2.3497916

 Broyden mixing:
  rms(total) = 0.10798E+02    rms(broyden)= 0.10798E+02
  rms(prec ) = 0.11858E+02
  weight for this iteration     100.00

 eigenvalues of (default mixing * dielectric matrix)
  average eigenvalue GAMMA=   0.3213
  1.0413  0.6306  0.6306  0.6753  0.3201  0.3201  0.2394  0.2394  0.1900  0.1900
  0.1586  0.1153  0.1061  0.1034  0.1034  0.0771

 Free energy of the ion-electron system (eV)
  ---------------------------------------------------
  alpha Z        PSCENC =      2397.92104513
  Ewald energy   TEWEN  =    142375.48984807
  -Hartree energ DENC   =   -226061.24311925
  -exchange      EXHF   =         0.00000000
  -V(xc)+E(xc)   XCENC  =      3561.06246335
  PAW double counting   =     94757.77431009   -93974.40439609
  entropy T*S    EENTRO =        -0.10502883
  eigenvalues    EBANDS =    -11744.37657994
  atomic energy  EATOM  =     87776.77885653
  Solvation  Ediel_sol  =         0.00000000
  ---------------------------------------------------
  free energy    TOTEN  =      -911.10260093 eV

  energy without entropy =     -910.99757210  energy(sigma->0) =     -911.05008652


--------------------------------------------------------------------------------------------------------




--------------------------------------- Iteration      2(  18)  ---------------------------------------


    POTLOK:  cpu time      0.0615: real time      0.0615
    SETDIJ:  cpu time      0.9747: real time      0.9751
    EDDIAG:  cpu time      0.6823: real time      0.6824
  RMM-DIIS:  cpu time      3.1408: real time      3.1423
    ORTHCH:  cpu time      0.1403: real time      0.1409
       DOS:  cpu time      0.0011: real time      0.0011
    CHARGE:  cpu time      0.2668: real time      0.2669
    MIXING:  cpu time      0.0032: real time      0.0032
    --------------------------------------------
      LOOP:  cpu time      5.2709: real time      5.2734

 eigenvalue-minimisations  :  5267
 total energy-change (2. order) :-0.5693402E+01  (-0.6533155E+01)
 number of electron    1168.0000015 magnetization      25.0578995
 augmentation part       34.7940489 magnetization       1.9226856

 Broyden mixing:
  rms(total) = 0.10397E+02    rms(broyden)= 0.10397E+02
  rms(prec ) = 0.11312E+02
  weight for this iteration     100.00

 eigenvalues of (default mixing * dielectric matrix)
  average eigenvalue GAMMA=   0.3135
  1.0490  0.6321  0.6321  0.6831  0.3219  0.3219  0.2531  0.2531  0.1182  0.1933
  0.1933  0.1624  0.1254  0.1254  0.1077  0.0948  0.0634

 Free energy of the ion-electron system (eV)
  ---------------------------------------------------
  alpha Z        PSCENC =      2397.92104513
  Ewald energy   TEWEN  =    142375.48984807
  -Hartree energ DENC   =   -226016.70290564
  -exchange      EXHF   =         0.00000000
  -V(xc)+E(xc)   XCENC  =      3561.49554988
  PAW double counting   =     94773.92292414   -93988.88933293
  entropy T*S    EENTRO =        -0.14155989
  eigenvalues    EBANDS =    -11796.67042834
  atomic energy  EATOM  =     87776.77885653
  Solvation  Ediel_sol  =         0.00000000
  ---------------------------------------------------
  free energy    TOTEN  =      -916.79600306 eV

  energy without entropy =     -916.65444317  energy(sigma->0) =     -916.72522311


--------------------------------------------------------------------------------------------------------




--------------------------------------- Iteration      2(  19)  ---------------------------------------


    POTLOK:  cpu time      0.0606: real time      0.0606
    SETDIJ:  cpu time      0.9742: real time      0.9745
    EDDIAG:  cpu time      0.6838: real time      0.6840
  RMM-DIIS:  cpu time      3.1911: real time      3.1928
    ORTHCH:  cpu time      0.1428: real time      0.1428
       DOS:  cpu time      0.0012: real time      0.0012
    CHARGE:  cpu time      0.2663: real time      0.2664
    MIXING:  cpu time      0.0033: real time      0.0033
    --------------------------------------------
      LOOP:  cpu time      5.3234: real time      5.3257

 eigenvalue-minimisations  :  5389
 total energy-change (2. order) :-0.7124863E+01  (-0.5620172E+01)
 number of electron    1168.0000015 magnetization      25.0368141
 augmentation part       34.1455733 magnetization       2.0683314

 Broyden mixing:
  rms(total) = 0.10570E+02    rms(broyden)= 0.10570E+02
  rms(prec ) = 0.11471E+02
  weight for this iteration     100.00

 eigenvalues of (default mixing * dielectric matrix)
  average eigenvalue GAMMA=   0.3026
  1.0573  0.6380  0.6380  0.6772  0.3224  0.3224  0.2560  0.2560  0.1680  0.1941
  0.1941  0.1629  0.1267  0.1267  0.1077  0.0926  0.0691  0.0369

 Free energy of the ion-electron system (eV)
  ---------------------------------------------------
  alpha Z        PSCENC =      2397.92104513
  Ewald energy   TEWEN  =    142375.48984807
  -Hartree energ DENC   =   -226026.86417735
  -exchange      EXHF   =         0.00000000
  -V(xc)+E(xc)   XCENC  =      3561.29687654
  PAW double counting   =     94772.24125148   -93987.61213589
  entropy T*S    EENTRO =        -0.13132314
  eigenvalues    EBANDS =    -11793.04110738
  atomic energy  EATOM  =     87776.77885653
  Solvation  Ediel_sol  =         0.00000000
  ---------------------------------------------------
  free energy    TOTEN  =      -923.92086601 eV

  energy without entropy =     -923.78954286  energy(sigma->0) =     -923.85520444


--------------------------------------------------------------------------------------------------------




--------------------------------------- Iteration      2(  20)  ---------------------------------------


    POTLOK:  cpu time      0.0590: real time      0.0590
    SETDIJ:  cpu time      0.9739: real time      0.9746
    EDDIAG:  cpu time      0.6820: real time      0.6822
  RMM-DIIS:  cpu time      3.1936: real time      3.1954
    ORTHCH:  cpu time      0.1407: real time      0.1407
       DOS:  cpu time      0.0013: real time      0.0013
    CHARGE:  cpu time      0.2668: real time      0.2675
    MIXING:  cpu time      0.0037: real time      0.0037
    --------------------------------------------
      LOOP:  cpu time      5.3209: real time      5.3243

 eigenvalue-minimisations  :  5413
 total energy-change (2. order) :-0.4575598E+01  (-0.4346698E+01)
 number of electron    1168.0000015 magnetization      25.0471258
 augmentation part       34.0935031 magnetization       1.9178033

 Broyden mixing:
  rms(total) = 0.10425E+02    rms(broyden)= 0.10425E+02
  rms(prec ) = 0.11311E+02
  weight for this iteration     100.00

 eigenvalues of (default mixing * dielectric matrix)
  average eigenvalue GAMMA=   0.2887
  1.0503  0.6380  0.6380  0.6836  0.3223  0.3223  0.1785  0.2548  0.2548  0.1937
  0.1937  0.1615  0.1250  0.1250  0.1078  0.0926  0.0691  0.0377  0.0377

 Free energy of the ion-electron system (eV)
  ---------------------------------------------------
  alpha Z        PSCENC =      2397.92104513
  Ewald energy   TEWEN  =    142375.48984807
  -Hartree energ DENC   =   -226026.35365200
  -exchange      EXHF   =         0.00000000
  -V(xc)+E(xc)   XCENC  =      3561.22385200
  PAW double counting   =     94777.68825838   -93992.92094804
  entropy T*S    EENTRO =        -0.14241853
  eigenvalues    EBANDS =    -11798.18130517
  atomic energy  EATOM  =     87776.77885653
  Solvation  Ediel_sol  =         0.00000000
  ---------------------------------------------------
  free energy    TOTEN  =      -928.49646364 eV

  energy without entropy =     -928.35404511  energy(sigma->0) =     -928.42525437


--------------------------------------------------------------------------------------------------------




--------------------------------------- Iteration      2(  21)  ---------------------------------------


    POTLOK:  cpu time      0.0589: real time      0.0589
    SETDIJ:  cpu time      0.9611: real time      0.9614
    EDDIAG:  cpu time      0.6832: real time      0.6833
  RMM-DIIS:  cpu time      3.2067: real time      3.2079
    ORTHCH:  cpu time      0.1388: real time      0.1393
       DOS:  cpu time      0.0009: real time      0.0009
    CHARGE:  cpu time      0.2632: real time      0.2633
    MIXING:  cpu time      0.0038: real time      0.0038
    --------------------------------------------
      LOOP:  cpu time      5.3167: real time      5.3188

 eigenvalue-minimisations  :  5417
 total energy-change (2. order) :-0.4067890E+01  (-0.3133227E+01)
 number of electron    1168.0000015 magnetization      25.0308113
 augmentation part       33.8606002 magnetization       1.3940268

 Broyden mixing:
  rms(total) = 0.10525E+02    rms(broyden)= 0.10524E+02
  rms(prec ) = 0.11419E+02
  weight for this iteration     100.00

 eigenvalues of (default mixing * dielectric matrix)
  average eigenvalue GAMMA=   0.2835
  1.0742  0.6411  0.6411  0.6593  0.3224  0.3224  0.2562  0.2562  0.1704  0.1943
  0.1943  0.1658  0.1303  0.1303  0.1076  0.0967  0.0967  0.0909  0.0675  0.0517

 Free energy of the ion-electron system (eV)
  ---------------------------------------------------
  alpha Z        PSCENC =      2397.92104513
  Ewald energy   TEWEN  =    142375.48984807
  -Hartree energ DENC   =   -226037.41942332
  -exchange      EXHF   =         0.00000000
  -V(xc)+E(xc)   XCENC  =      3561.39794230
  PAW double counting   =     94787.09831764   -94002.62640644
  entropy T*S    EENTRO =        -0.12353405
  eigenvalues    EBANDS =    -11791.08099966
  atomic energy  EATOM  =     87776.77885653
  Solvation  Ediel_sol  =         0.00000000
  ---------------------------------------------------
  free energy    TOTEN  =      -932.56435381 eV

  energy without entropy =     -932.44081976  energy(sigma->0) =     -932.50258679


--------------------------------------------------------------------------------------------------------




--------------------------------------- Iteration      2(  22)  ---------------------------------------


    POTLOK:  cpu time      0.0578: real time      0.0578
    SETDIJ:  cpu time      0.9587: real time      0.9590
    EDDIAG:  cpu time      0.6846: real time      0.6847
  RMM-DIIS:  cpu time      3.2138: real time      3.2153
    ORTHCH:  cpu time      0.1374: real time      0.1374
       DOS:  cpu time      0.0010: real time      0.0010
    CHARGE:  cpu time      0.2640: real time      0.2640
    MIXING:  cpu time      0.0044: real time      0.0044
    --------------------------------------------
      LOOP:  cpu time      5.3217: real time      5.3237

 eigenvalue-minimisations  :  5386
 total energy-change (2. order) :-0.3679592E+01  (-0.2667165E+01)
 number of electron    1168.0000014 magnetization      25.0120262
 augmentation part       33.8010488 magnetization       1.6348946

 Broyden mixing:
  rms(total) = 0.10494E+02    rms(broyden)= 0.10493E+02
  rms(prec ) = 0.11414E+02
  weight for this iteration     100.00

 eigenvalues of (default mixing * dielectric matrix)
  average eigenvalue GAMMA=   0.2828
  1.0802  0.6428  0.6428  0.6704  0.3229  0.3229  0.2617  0.2617  0.1796  0.1796
  0.1319  0.1969  0.1969  0.1638  0.1353  0.1353  0.1077  0.0961  0.0961  0.0571
  0.0571

 Free energy of the ion-electron system (eV)
  ---------------------------------------------------
  alpha Z        PSCENC =      2397.92104513
  Ewald energy   TEWEN  =    142375.48984807
  -Hartree energ DENC   =   -226049.18319865
  -exchange      EXHF   =         0.00000000
  -V(xc)+E(xc)   XCENC  =      3561.30575546
  PAW double counting   =     94805.08528074   -94020.48280655
  entropy T*S    EENTRO =        -0.10867867
  eigenvalues    EBANDS =    -11783.05004801
  atomic energy  EATOM  =     87776.77885653
  Solvation  Ediel_sol  =         0.00000000
  ---------------------------------------------------
  free energy    TOTEN  =      -936.24394596 eV

  energy without entropy =     -936.13526729  energy(sigma->0) =     -936.18960662


--------------------------------------------------------------------------------------------------------




--------------------------------------- Iteration      2(  23)  ---------------------------------------


    POTLOK:  cpu time      0.0577: real time      0.0577
    SETDIJ:  cpu time      0.9667: real time      0.9674
    EDDIAG:  cpu time      0.6820: real time      0.6822
  RMM-DIIS:  cpu time      3.1711: real time      3.1728
    ORTHCH:  cpu time      0.1376: real time      0.1376
       DOS:  cpu time      0.0011: real time      0.0011
    CHARGE:  cpu time      0.2649: real time      0.2649
    MIXING:  cpu time      0.0039: real time      0.0039
    --------------------------------------------
      LOOP:  cpu time      5.2849: real time      5.2877

 eigenvalue-minimisations  :  5294
 total energy-change (2. order) :-0.4071627E+01  (-0.2490590E+01)
 number of electron    1168.0000015 magnetization      25.0113584
 augmentation part       34.3163168 magnetization       1.0886567

 Broyden mixing:
  rms(total) = 0.10419E+02    rms(broyden)= 0.10418E+02
  rms(prec ) = 0.11396E+02
  weight for this iteration     100.00

 eigenvalues of (default mixing * dielectric matrix)
  average eigenvalue GAMMA=   0.2726
  1.0786  0.6431  0.6431  0.6708  0.3230  0.3230  0.2619  0.2619  0.1955  0.1955
  0.1970  0.1970  0.1249  0.1628  0.1334  0.1334  0.1078  0.0946  0.0946  0.0578
  0.0578  0.0405

 Free energy of the ion-electron system (eV)
  ---------------------------------------------------
  alpha Z        PSCENC =      2397.92104513
  Ewald energy   TEWEN  =    142375.48984807
  -Hartree energ DENC   =   -226053.49874862
  -exchange      EXHF   =         0.00000000
  -V(xc)+E(xc)   XCENC  =      3561.45962910
  PAW double counting   =     94850.31116741   -94064.27748387
  entropy T*S    EENTRO =        -0.08327485
  eigenvalues    EBANDS =    -11784.41661158
  atomic energy  EATOM  =     87776.77885653
  Solvation  Ediel_sol  =         0.00000000
  ---------------------------------------------------
  free energy    TOTEN  =      -940.31557269 eV

  energy without entropy =     -940.23229784  energy(sigma->0) =     -940.27393526


--------------------------------------------------------------------------------------------------------




--------------------------------------- Iteration      2(  24)  ---------------------------------------


    POTLOK:  cpu time      0.0577: real time      0.0577
    SETDIJ:  cpu time      0.9575: real time      0.9587
    EDDIAG:  cpu time      0.6831: real time      0.6833
  RMM-DIIS:  cpu time      3.1622: real time      3.1635
    ORTHCH:  cpu time      0.1384: real time      0.1384
       DOS:  cpu time      0.0010: real time      0.0010
    CHARGE:  cpu time      0.2675: real time      0.2684
    MIXING:  cpu time      0.0042: real time      0.0042
    --------------------------------------------
      LOOP:  cpu time      5.2715: real time      5.2751

 eigenvalue-minimisations  :  5366
 total energy-change (2. order) :-0.2310174E+01  (-0.2052720E+01)
 number of electron    1168.0000015 magnetization      25.0275903
 augmentation part       34.2311403 magnetization       1.0797180

 Broyden mixing:
  rms(total) = 0.10452E+02    rms(broyden)= 0.10452E+02
  rms(prec ) = 0.11432E+02
  weight for this iteration     100.00

 eigenvalues of (default mixing * dielectric matrix)
  average eigenvalue GAMMA=   0.2618
  1.0790  0.6433  0.6433  0.6696  0.3229  0.3229  0.2614  0.2614  0.1937  0.1937
  0.1968  0.1968  0.1242  0.1628  0.1342  0.1342  0.1077  0.0953  0.0953  0.0571
  0.0571  0.0343  0.0343

 Free energy of the ion-electron system (eV)
  ---------------------------------------------------
  alpha Z        PSCENC =      2397.92104513
  Ewald energy   TEWEN  =    142375.48984807
  -Hartree energ DENC   =   -226053.49879370
  -exchange      EXHF   =         0.00000000
  -V(xc)+E(xc)   XCENC  =      3561.51951876
  PAW double counting   =     94850.06753553   -94064.06030654
  entropy T*S    EENTRO =        -0.08201799
  eigenvalues    EBANDS =    -11786.76143248
  atomic energy  EATOM  =     87776.77885653
  Solvation  Ediel_sol  =         0.00000000
  ---------------------------------------------------
  free energy    TOTEN  =      -942.62574669 eV

  energy without entropy =     -942.54372870  energy(sigma->0) =     -942.58473770


--------------------------------------------------------------------------------------------------------




--------------------------------------- Iteration      2(  25)  ---------------------------------------


    POTLOK:  cpu time      0.0574: real time      0.0574
    SETDIJ:  cpu time      0.9585: real time      0.9588
    EDDIAG:  cpu time      0.6838: real time      0.6838
  RMM-DIIS:  cpu time      3.1968: real time      3.1991
    ORTHCH:  cpu time      0.1370: real time      0.1370
       DOS:  cpu time      0.0010: real time      0.0010
    CHARGE:  cpu time      0.2691: real time      0.2691
    MIXING:  cpu time      0.0046: real time      0.0046
    --------------------------------------------
      LOOP:  cpu time      5.3081: real time      5.3109

 eigenvalue-minimisations  :  5366
 total energy-change (2. order) :-0.2299798E+01  (-0.2004705E+01)
 number of electron    1168.0000015 magnetization      25.0562570
 augmentation part       34.0051215 magnetization       1.0471526

 Broyden mixing:
  rms(total) = 0.10424E+02    rms(broyden)= 0.10424E+02
  rms(prec ) = 0.11374E+02
  weight for this iteration     100.00

 eigenvalues of (default mixing * dielectric matrix)
  average eigenvalue GAMMA=   0.2641
  1.0709  0.6445  0.6445  0.6801  0.3230  0.3230  0.2054  0.2054  0.2640  0.2640
  0.1322  0.1985  0.1985  0.1048  0.1600  0.1130  0.1130  0.1344  0.1344  0.1078
  0.1018  0.1018  0.0595  0.0543

 Free energy of the ion-electron system (eV)
  ---------------------------------------------------
  alpha Z        PSCENC =      2397.92104513
  Ewald energy   TEWEN  =    142375.48984807
  -Hartree energ DENC   =   -226053.46961683
  -exchange      EXHF   =         0.00000000
  -V(xc)+E(xc)   XCENC  =      3561.60531601
  PAW double counting   =     94853.99357433   -94067.85439606
  entropy T*S    EENTRO =        -0.08596309
  eigenvalues    EBANDS =    -11789.30420896
  atomic energy  EATOM  =     87776.77885653
  Solvation  Ediel_sol  =         0.00000000
  ---------------------------------------------------
  free energy    TOTEN  =      -944.92554487 eV

  energy without entropy =     -944.83958179  energy(sigma->0) =     -944.88256333


--------------------------------------------------------------------------------------------------------




--------------------------------------- Iteration      2(  26)  ---------------------------------------


    POTLOK:  cpu time      0.0585: real time      0.0585
    SETDIJ:  cpu time      0.9692: real time      0.9699
    EDDIAG:  cpu time      0.6816: real time      0.6820
  RMM-DIIS:  cpu time      3.1232: real time      3.1253
    ORTHCH:  cpu time      0.1356: real time      0.1357
       DOS:  cpu time      0.0009: real time      0.0009
    CHARGE:  cpu time      0.2635: real time      0.2635
    MIXING:  cpu time      0.0047: real time      0.0047
    --------------------------------------------
      LOOP:  cpu time      5.2373: real time      5.2405

 eigenvalue-minimisations  :  5283
 total energy-change (2. order) :-0.5786682E+00  (-0.1948312E+01)
 number of electron    1168.0000015 magnetization      25.0330072
 augmentation part       34.3012875 magnetization       0.5643623

 Broyden mixing:
  rms(total) = 0.10412E+02    rms(broyden)= 0.10412E+02
  rms(prec ) = 0.11348E+02
  weight for this iteration     100.00

 eigenvalues of (default mixing * dielectric matrix)
  average eigenvalue GAMMA=   0.2602
  1.0776  0.6461  0.6461  0.6749  0.3233  0.3233  0.2689  0.2689  0.1967  0.1967
  0.1195  0.1268  0.1268  0.2004  0.2004  0.1594  0.1254  0.1254  0.1350  0.1350
  0.1078  0.1033  0.1033  0.0596  0.0542

 Free energy of the ion-electron system (eV)
  ---------------------------------------------------
  alpha Z        PSCENC =      2397.92104513
  Ewald energy   TEWEN  =    142375.48984807
  -Hartree energ DENC   =   -226050.26690439
  -exchange      EXHF   =         0.00000000
  -V(xc)+E(xc)   XCENC  =      3561.67665343
  PAW double counting   =     94861.05937702   -94073.84262739
  entropy T*S    EENTRO =        -0.10072290
  eigenvalues    EBANDS =    -11794.21973861
  atomic energy  EATOM  =     87776.77885653
  Solvation  Ediel_sol  =         0.00000000
  ---------------------------------------------------
  free energy    TOTEN  =      -945.50421311 eV

  energy without entropy =     -945.40349021  energy(sigma->0) =     -945.45385166


--------------------------------------------------------------------------------------------------------




--------------------------------------- Iteration      2(  27)  ---------------------------------------


    POTLOK:  cpu time      0.0573: real time      0.0573
    SETDIJ:  cpu time      0.9671: real time      0.9675
    EDDIAG:  cpu time      0.6841: real time      0.6843
  RMM-DIIS:  cpu time      3.1606: real time      3.1631
    ORTHCH:  cpu time      0.1361: real time      0.1361
       DOS:  cpu time      0.0009: real time      0.0009
    CHARGE:  cpu time      0.2625: real time      0.2635
    MIXING:  cpu time      0.0051: real time      0.0051
    --------------------------------------------
      LOOP:  cpu time      5.2736: real time      5.2778

 eigenvalue-minimisations  :  5326
 total energy-change (2. order) :-0.2527472E+01  (-0.2159732E+01)
 number of electron    1168.0000015 magnetization      25.0336216
 augmentation part       34.6249269 magnetization       0.8402293

 Broyden mixing:
  rms(total) = 0.10508E+02    rms(broyden)= 0.10508E+02
  rms(prec ) = 0.11481E+02
  weight for this iteration     100.00

 eigenvalues of (default mixing * dielectric matrix)
  average eigenvalue GAMMA=   0.2581
  1.0652  0.6477  0.6477  0.6866  0.3232  0.3232  0.2677  0.2677  0.2011  0.2011
  0.1717  0.1717  0.1166  0.1998  0.1998  0.1353  0.1353  0.1593  0.1364  0.1364
  0.1081  0.1012  0.1012  0.0928  0.0597  0.0542

 Free energy of the ion-electron system (eV)
  ---------------------------------------------------
  alpha Z        PSCENC =      2397.92104513
  Ewald energy   TEWEN  =    142375.48984807
  -Hartree energ DENC   =   -226051.30787217
  -exchange      EXHF   =         0.00000000
  -V(xc)+E(xc)   XCENC  =      3561.68588944
  PAW double counting   =     94865.29086995   -94078.14723619
  entropy T*S    EENTRO =        -0.09954037
  eigenvalues    EBANDS =    -11795.64354513
  atomic energy  EATOM  =     87776.77885653
  Solvation  Ediel_sol  =         0.00000000
  ---------------------------------------------------
  free energy    TOTEN  =      -948.03168474 eV

  energy without entropy =     -947.93214437  energy(sigma->0) =     -947.98191456


--------------------------------------------------------------------------------------------------------




--------------------------------------- Iteration      2(  28)  ---------------------------------------


    POTLOK:  cpu time      0.0585: real time      0.0585
    SETDIJ:  cpu time      0.9564: real time      0.9567
    EDDIAG:  cpu time      0.6868: real time      0.6869
  RMM-DIIS:  cpu time      3.1685: real time      3.1703
    ORTHCH:  cpu time      0.1385: real time      0.1387
       DOS:  cpu time      0.0008: real time      0.0008
    CHARGE:  cpu time      0.2637: real time      0.2638
    MIXING:  cpu time      0.0049: real time      0.0049
    --------------------------------------------
      LOOP:  cpu time      5.2781: real time      5.2805

 eigenvalue-minimisations  :  5330
 total energy-change (2. order) :-0.1454380E+01  (-0.1961303E+01)
 number of electron    1168.0000015 magnetization      25.0504831
 augmentation part       34.3987356 magnetization       0.9134825

 Broyden mixing:
  rms(total) = 0.10461E+02    rms(broyden)= 0.10461E+02
  rms(prec ) = 0.11425E+02
  weight for this iteration     100.00

 eigenvalues of (default mixing * dielectric matrix)
  average eigenvalue GAMMA=   0.2568
  1.0565  0.6501  0.6501  0.6898  0.3222  0.3222  0.2112  0.2112  0.1807  0.1807
  0.2618  0.2618  0.1147  0.1635  0.1635  0.1974  0.1974  0.1630  0.1360  0.1360
  0.1197  0.1197  0.1076  0.1012  0.1012  0.0597  0.0542

 Free energy of the ion-electron system (eV)
  ---------------------------------------------------
  alpha Z        PSCENC =      2397.92104513
  Ewald energy   TEWEN  =    142375.48984807
  -Hartree energ DENC   =   -226047.44919608
  -exchange      EXHF   =         0.00000000
  -V(xc)+E(xc)   XCENC  =      3561.61106232
  PAW double counting   =     94865.13388876   -94077.77482266
  entropy T*S    EENTRO =        -0.09319430
  eigenvalues    EBANDS =    -11801.10355271
  atomic energy  EATOM  =     87776.77885653
  Solvation  Ediel_sol  =         0.00000000
  ---------------------------------------------------
  free energy    TOTEN  =      -949.48606494 eV

  energy without entropy =     -949.39287064  energy(sigma->0) =     -949.43946779


--------------------------------------------------------------------------------------------------------




--------------------------------------- Iteration      2(  29)  ---------------------------------------


    POTLOK:  cpu time      0.0570: real time      0.0570
    SETDIJ:  cpu time      0.9545: real time      0.9548
    EDDIAG:  cpu time      0.6876: real time      0.6878
  RMM-DIIS:  cpu time      3.1355: real time      3.1373
    ORTHCH:  cpu time      0.1376: real time      0.1376
       DOS:  cpu time      0.0009: real time      0.0009
    CHARGE:  cpu time      0.2652: real time      0.2653
    MIXING:  cpu time      0.0047: real time      0.0047
    --------------------------------------------
      LOOP:  cpu time      5.2432: real time      5.2456

 eigenvalue-minimisations  :  5305
 total energy-change (2. order) :-0.3153819E+01  (-0.2004519E+01)
 number of electron    1168.0000015 magnetization      25.1026117
 augmentation part       34.6153119 magnetization       0.5067312

 Broyden mixing:
  rms(total) = 0.10478E+02    rms(broyden)= 0.10478E+02
  rms(prec ) = 0.11448E+02
  weight for this iteration     100.00

 eigenvalues of (default mixing * dielectric matrix)
  average eigenvalue GAMMA=   0.2557
  1.0293  0.7164  0.6480  0.6480  0.3224  0.3224  0.2347  0.2347  0.1889  0.1889
  0.2686  0.2686  0.1734  0.1734  0.1139  0.2019  0.2019  0.1546  0.1312  0.1312
  0.1381  0.1381  0.1155  0.1069  0.0978  0.0978  0.0597  0.0542

 Free energy of the ion-electron system (eV)
  ---------------------------------------------------
  alpha Z        PSCENC =      2397.92104513
  Ewald energy   TEWEN  =    142375.48984807
  -Hartree energ DENC   =   -226037.14811441
  -exchange      EXHF   =         0.00000000
  -V(xc)+E(xc)   XCENC  =      3561.42971762
  PAW double counting   =     94859.74639029   -94071.99313187
  entropy T*S    EENTRO =        -0.09695048
  eigenvalues    EBANDS =    -11814.76754489
  atomic energy  EATOM  =     87776.77885653
  Solvation  Ediel_sol  =         0.00000000
  ---------------------------------------------------
  free energy    TOTEN  =      -952.63988401 eV

  energy without entropy =     -952.54293353  energy(sigma->0) =     -952.59140877


--------------------------------------------------------------------------------------------------------




--------------------------------------- Iteration      2(  30)  ---------------------------------------


    POTLOK:  cpu time      0.0605: real time      0.0605
    SETDIJ:  cpu time      0.9558: real time      0.9565
    EDDIAG:  cpu time      0.6862: real time      0.6867
  RMM-DIIS:  cpu time      3.1320: real time      3.1339
    ORTHCH:  cpu time      0.1374: real time      0.1374
       DOS:  cpu time      0.0008: real time      0.0008
    CHARGE:  cpu time      0.2645: real time      0.2645
    MIXING:  cpu time      0.0049: real time      0.0050
    --------------------------------------------
      LOOP:  cpu time      5.2420: real time      5.2451

 eigenvalue-minimisations  :  5286
 total energy-change (2. order) :-0.1404615E+01  (-0.1902828E+01)
 number of electron    1168.0000015 magnetization      25.0856615
 augmentation part       33.8952814 magnetization       0.8015047

 Broyden mixing:
  rms(total) = 0.10362E+02    rms(broyden)= 0.10362E+02
  rms(prec ) = 0.11294E+02
  weight for this iteration     100.00

 eigenvalues of (default mixing * dielectric matrix)
  average eigenvalue GAMMA=   0.2568
  1.0289  0.7184  0.6490  0.6490  0.3213  0.3213  0.2695  0.2695  0.2309  0.2309
  0.2049  0.2049  0.1999  0.1999  0.1770  0.2052  0.2052  0.1131  0.1370  0.1370
  0.1467  0.1467  0.1321  0.1321  0.1074  0.0978  0.0978  0.0597  0.0542

 Free energy of the ion-electron system (eV)
  ---------------------------------------------------
  alpha Z        PSCENC =      2397.92104513
  Ewald energy   TEWEN  =    142375.48984807
  -Hartree energ DENC   =   -226028.39268737
  -exchange      EXHF   =         0.00000000
  -V(xc)+E(xc)   XCENC  =      3561.23110238
  PAW double counting   =     94852.10582065   -94063.82685298
  entropy T*S    EENTRO =        -0.07246340
  eigenvalues    EBANDS =    -11825.27916822
  atomic energy  EATOM  =     87776.77885653
  Solvation  Ediel_sol  =         0.00000000
  ---------------------------------------------------
  free energy    TOTEN  =      -954.04449921 eV

  energy without entropy =     -953.97203581  energy(sigma->0) =     -954.00826751


--------------------------------------------------------------------------------------------------------




--------------------------------------- Iteration      2(  31)  ---------------------------------------


    POTLOK:  cpu time      0.0584: real time      0.0584
    SETDIJ:  cpu time      0.9564: real time      0.9569
    EDDIAG:  cpu time      0.6842: real time      0.6845
  RMM-DIIS:  cpu time      3.1575: real time      3.1593
    ORTHCH:  cpu time      0.1376: real time      0.1376
       DOS:  cpu time      0.0009: real time      0.0009
    CHARGE:  cpu time      0.2675: real time      0.2683
    MIXING:  cpu time      0.0048: real time      0.0048
    --------------------------------------------
      LOOP:  cpu time      5.2674: real time      5.2708

 eigenvalue-minimisations  :  5299
 total energy-change (2. order) :-0.3478603E+01  (-0.2260729E+01)
 number of electron    1168.0000015 magnetization      25.0859913
 augmentation part       33.9761507 magnetization       1.6397385

 Broyden mixing:
  rms(total) = 0.10503E+02    rms(broyden)= 0.10503E+02
  rms(prec ) = 0.11453E+02
  weight for this iteration     100.00

 eigenvalues of (default mixing * dielectric matrix)
  average eigenvalue GAMMA=   0.2534
  1.0263  0.7194  0.6497  0.6497  0.3215  0.3215  0.2086  0.2085  0.2085  0.2463
  0.2463  0.2719  0.2719  0.2033  0.2033  0.1133  0.2057  0.2057  0.1390  0.1390
  0.1395  0.1395  0.1419  0.1281  0.1071  0.0957  0.0957  0.0826  0.0597  0.0542

 Free energy of the ion-electron system (eV)
  ---------------------------------------------------
  alpha Z        PSCENC =      2397.92104513
  Ewald energy   TEWEN  =    142375.48984807
  -Hartree energ DENC   =   -226040.28812454
  -exchange      EXHF   =         0.00000000
  -V(xc)+E(xc)   XCENC  =      3561.40821186
  PAW double counting   =     94859.99642465   -94071.67251409
  entropy T*S    EENTRO =        -0.07577692
  eigenvalues    EBANDS =    -11817.08107296
  atomic energy  EATOM  =     87776.77885653
  Solvation  Ediel_sol  =         0.00000000
  ---------------------------------------------------
  free energy    TOTEN  =      -957.52310227 eV

  energy without entropy =     -957.44732535  energy(sigma->0) =     -957.48521381


--------------------------------------------------------------------------------------------------------




--------------------------------------- Iteration      2(  32)  ---------------------------------------


    POTLOK:  cpu time      0.0593: real time      0.0593
    SETDIJ:  cpu time      0.9602: real time      0.9606
    EDDIAG:  cpu time      0.6836: real time      0.6837
  RMM-DIIS:  cpu time      3.1872: real time      3.1891
    ORTHCH:  cpu time      0.1358: real time      0.1362
       DOS:  cpu time      0.0008: real time      0.0008
    CHARGE:  cpu time      0.2631: real time      0.2631
    MIXING:  cpu time      0.0050: real time      0.0051
    --------------------------------------------
      LOOP:  cpu time      5.2949: real time      5.2977

 eigenvalue-minimisations  :  5316
 total energy-change (2. order) :-0.2195521E+01  (-0.1884796E+01)
 number of electron    1168.0000015 magnetization      25.1000678
 augmentation part       33.9644433 magnetization       1.7018732

 Broyden mixing:
  rms(total) = 0.10544E+02    rms(broyden)= 0.10544E+02
  rms(prec ) = 0.11507E+02
  weight for this iteration     100.00

 eigenvalues of (default mixing * dielectric matrix)
  average eigenvalue GAMMA=   0.2457
  1.0265  0.7194  0.6497  0.6497  0.3215  0.3215  0.2719  0.2719  0.2461  0.2461
  0.2083  0.2083  0.2063  0.2031  0.2031  0.2059  0.2059  0.1133  0.1391  0.1391
  0.1396  0.1396  0.1408  0.1291  0.1071  0.0941  0.0941  0.0893  0.0597  0.0542
  0.0111

 Free energy of the ion-electron system (eV)
  ---------------------------------------------------
  alpha Z        PSCENC =      2397.92104513
  Ewald energy   TEWEN  =    142375.48984807
  -Hartree energ DENC   =   -226041.58791027
  -exchange      EXHF   =         0.00000000
  -V(xc)+E(xc)   XCENC  =      3561.43218169
  PAW double counting   =     94859.33467705   -94071.05011986
  entropy T*S    EENTRO =        -0.08043858
  eigenvalues    EBANDS =    -11817.95676329
  atomic energy  EATOM  =     87776.77885653
  Solvation  Ediel_sol  =         0.00000000
  ---------------------------------------------------
  free energy    TOTEN  =      -959.71862353 eV

  energy without entropy =     -959.63818495  energy(sigma->0) =     -959.67840424


--------------------------------------------------------------------------------------------------------




--------------------------------------- Iteration      2(  33)  ---------------------------------------


    POTLOK:  cpu time      0.0584: real time      0.0584
    SETDIJ:  cpu time      0.9721: real time      0.9725
    EDDIAG:  cpu time      0.6846: real time      0.6849
  RMM-DIIS:  cpu time      3.1449: real time      3.1469
    ORTHCH:  cpu time      0.1373: real time      0.1373
       DOS:  cpu time      0.0008: real time      0.0008
    CHARGE:  cpu time      0.2652: real time      0.2653
    MIXING:  cpu time      0.0053: real time      0.0053
    --------------------------------------------
      LOOP:  cpu time      5.2687: real time      5.2714

 eigenvalue-minimisations  :  5293
 total energy-change (2. order) :-0.3625288E+01  (-0.1883918E+01)
 number of electron    1168.0000015 magnetization      25.0903042
 augmentation part       33.6588223 magnetization       2.5728421

 Broyden mixing:
  rms(total) = 0.10602E+02    rms(broyden)= 0.10602E+02
  rms(prec ) = 0.11558E+02
  weight for this iteration     100.00

 eigenvalues of (default mixing * dielectric matrix)
  average eigenvalue GAMMA=   0.2535
  1.0274  0.6509  0.6509  0.7130  0.3218  0.3218  0.2554  0.2755  0.2755  0.2079
  0.2079  0.2667  0.2667  0.1820  0.1820  0.2123  0.2123  0.1134  0.2057  0.2057
  0.1394  0.1394  0.1488  0.1488  0.1312  0.1312  0.1073  0.1024  0.0975  0.0975
  0.0597  0.0542

 Free energy of the ion-electron system (eV)
  ---------------------------------------------------
  alpha Z        PSCENC =      2397.92104513
  Ewald energy   TEWEN  =    142375.48984807
  -Hartree energ DENC   =   -226042.15885305
  -exchange      EXHF   =         0.00000000
  -V(xc)+E(xc)   XCENC  =      3561.34509451
  PAW double counting   =     94860.54659103   -94072.01958019
  entropy T*S    EENTRO =        -0.06696892
  eigenvalues    EBANDS =    -11821.17994493
  atomic energy  EATOM  =     87776.77885653
  Solvation  Ediel_sol  =         0.00000000
  ---------------------------------------------------
  free energy    TOTEN  =      -963.34391182 eV

  energy without entropy =     -963.27694289  energy(sigma->0) =     -963.31042735


--------------------------------------------------------------------------------------------------------




--------------------------------------- Iteration      2(  34)  ---------------------------------------


    POTLOK:  cpu time      0.0651: real time      0.0651
    SETDIJ:  cpu time      0.9684: real time      0.9692
    EDDIAG:  cpu time      0.6844: real time      0.6846
  RMM-DIIS:  cpu time      3.1459: real time      3.1475
    ORTHCH:  cpu time      0.1378: real time      0.1378
       DOS:  cpu time      0.0011: real time      0.0011
    CHARGE:  cpu time      0.2655: real time      0.2655
    MIXING:  cpu time      0.0053: real time      0.0053
    --------------------------------------------
      LOOP:  cpu time      5.2736: real time      5.2762

 eigenvalue-minimisations  :  5284
 total energy-change (2. order) :-0.1968634E+01  (-0.1447579E+01)
 number of electron    1168.0000015 magnetization      25.1066918
 augmentation part       34.0105509 magnetization       2.1295430

 Broyden mixing:
  rms(total) = 0.10694E+02    rms(broyden)= 0.10694E+02
  rms(prec ) = 0.11703E+02
  weight for this iteration     100.00

 eigenvalues of (default mixing * dielectric matrix)
  average eigenvalue GAMMA=   0.2563
  1.0114  0.7332  0.6500  0.6500  0.2964  0.3256  0.3256  0.3215  0.3215  0.2074
  0.2074  0.2507  0.2507  0.2692  0.2692  0.1861  0.1861  0.1134  0.2072  0.2072
  0.1437  0.1437  0.1478  0.1428  0.1428  0.1188  0.1188  0.1076  0.0991  0.0991
  0.0913  0.0597  0.0542

 Free energy of the ion-electron system (eV)
  ---------------------------------------------------
  alpha Z        PSCENC =      2397.92104513
  Ewald energy   TEWEN  =    142375.48984807
  -Hartree energ DENC   =   -226034.59106863
  -exchange      EXHF   =         0.00000000
  -V(xc)+E(xc)   XCENC  =      3561.26292583
  PAW double counting   =     94860.78697351   -94072.18266645
  entropy T*S    EENTRO =        -0.10352907
  eigenvalues    EBANDS =    -11830.67493066
  atomic energy  EATOM  =     87776.77885653
  Solvation  Ediel_sol  =         0.00000000
  ---------------------------------------------------
  free energy    TOTEN  =      -965.31254574 eV

  energy without entropy =     -965.20901667  energy(sigma->0) =     -965.26078121


--------------------------------------------------------------------------------------------------------




--------------------------------------- Iteration      2(  35)  ---------------------------------------


    POTLOK:  cpu time      0.0600: real time      0.0605
    SETDIJ:  cpu time      0.9668: real time      0.9672
    EDDIAG:  cpu time      0.6848: real time      0.6852
  RMM-DIIS:  cpu time      3.1426: real time      3.1443
    ORTHCH:  cpu time      0.1420: real time      0.1420
       DOS:  cpu time      0.0013: real time      0.0013
    CHARGE:  cpu time      0.2689: real time      0.2697
    MIXING:  cpu time      0.0054: real time      0.0054
    --------------------------------------------
      LOOP:  cpu time      5.2718: real time      5.2756

 eigenvalue-minimisations  :  5268
 total energy-change (2. order) :-0.1066239E+01  (-0.1312151E+01)
 number of electron    1168.0000015 magnetization      25.0904499
 augmentation part       34.5404609 magnetization       1.9836342

 Broyden mixing:
  rms(total) = 0.10885E+02    rms(broyden)= 0.10885E+02
  rms(prec ) = 0.11973E+02
  weight for this iteration     100.00

 eigenvalues of (default mixing * dielectric matrix)
  average eigenvalue GAMMA=   0.2597
  1.0230  0.7226  0.6526  0.6526  0.3383  0.3383  0.2684  0.2684  0.3226  0.3226
  0.2104  0.2104  0.2764  0.2764  0.2656  0.2656  0.1876  0.1876  0.1134  0.2090
  0.2090  0.1460  0.1460  0.1590  0.1479  0.1479  0.1249  0.1249  0.1075  0.0984
  0.0984  0.0955  0.0597  0.0542

 Free energy of the ion-electron system (eV)
  ---------------------------------------------------
  alpha Z        PSCENC =      2397.92104513
  Ewald energy   TEWEN  =    142375.48984807
  -Hartree energ DENC   =   -226014.97520832
  -exchange      EXHF   =         0.00000000
  -V(xc)+E(xc)   XCENC  =      3561.14062736
  PAW double counting   =     94865.49792083   -94075.48571940
  entropy T*S    EENTRO =        -0.07042336
  eigenvalues    EBANDS =    -11852.67573138
  atomic energy  EATOM  =     87776.77885653
  Solvation  Ediel_sol  =         0.00000000
  ---------------------------------------------------
  free energy    TOTEN  =      -966.37878454 eV

  energy without entropy =     -966.30836118  energy(sigma->0) =     -966.34357286


--------------------------------------------------------------------------------------------------------




--------------------------------------- Iteration      2(  36)  ---------------------------------------


    POTLOK:  cpu time      0.0594: real time      0.0594
    SETDIJ:  cpu time      0.9756: real time      0.9760
    EDDIAG:  cpu time      0.6841: real time      0.6842
  RMM-DIIS:  cpu time      3.1369: real time      3.1387
    ORTHCH:  cpu time      0.1413: real time      0.1413
       DOS:  cpu time      0.0008: real time      0.0009
    CHARGE:  cpu time      0.2634: real time      0.2634
    MIXING:  cpu time      0.0058: real time      0.0058
    --------------------------------------------
      LOOP:  cpu time      5.2674: real time      5.2696

 eigenvalue-minimisations  :  5276
 total energy-change (2. order) :-0.4203872E+01  (-0.1158566E+01)
 number of electron    1168.0000015 magnetization      25.0900665
 augmentation part       34.7154466 magnetization       1.7440085

 Broyden mixing:
  rms(total) = 0.11060E+02    rms(broyden)= 0.11060E+02
  rms(prec ) = 0.12181E+02
  weight for this iteration     100.00

 eigenvalues of (default mixing * dielectric matrix)
  average eigenvalue GAMMA=   0.2516
  1.0151  0.7299  0.6520  0.6520  0.3288  0.3288  0.3226  0.3226  0.2256  0.2256
  0.2127  0.2127  0.2741  0.2741  0.2647  0.2647  0.1876  0.1876  0.1134  0.2092
  0.2092  0.0815  0.1458  0.1458  0.1594  0.1490  0.1490  0.1253  0.1253  0.1075
  0.0983  0.0983  0.0956  0.0597  0.0542

 Free energy of the ion-electron system (eV)
  ---------------------------------------------------
  alpha Z        PSCENC =      2397.92104513
  Ewald energy   TEWEN  =    142375.48984807
  -Hartree energ DENC   =   -226018.30097260
  -exchange      EXHF   =         0.00000000
  -V(xc)+E(xc)   XCENC  =      3561.12858402
  PAW double counting   =     94870.67900085   -94080.98957295
  entropy T*S    EENTRO =        -0.06084430
  eigenvalues    EBANDS =    -11853.22860131
  atomic energy  EATOM  =     87776.77885653
  Solvation  Ediel_sol  =         0.00000000
  ---------------------------------------------------
  free energy    TOTEN  =      -970.58265657 eV

  energy without entropy =     -970.52181228  energy(sigma->0) =     -970.55223442


--------------------------------------------------------------------------------------------------------




--------------------------------------- Iteration      2(  37)  ---------------------------------------


    POTLOK:  cpu time      0.0599: real time      0.0599
    SETDIJ:  cpu time      0.9643: real time      0.9650
    EDDIAG:  cpu time      0.6843: real time      0.6845
  RMM-DIIS:  cpu time      3.1685: real time      3.1700
    ORTHCH:  cpu time      0.1402: real time      0.1402
       DOS:  cpu time      0.0011: real time      0.0011
    CHARGE:  cpu time      0.2674: real time      0.2674
    MIXING:  cpu time      0.0056: real time      0.0056
    --------------------------------------------
      LOOP:  cpu time      5.2913: real time      5.2938

 eigenvalue-minimisations  :  5291
 total energy-change (2. order) :-0.9887266E+00  (-0.1023096E+01)
 number of electron    1168.0000015 magnetization      25.0885627
 augmentation part       34.6928748 magnetization       1.7284486

 Broyden mixing:
  rms(total) = 0.11073E+02    rms(broyden)= 0.11073E+02
  rms(prec ) = 0.12197E+02
  weight for this iteration     100.00

 eigenvalues of (default mixing * dielectric matrix)
  average eigenvalue GAMMA=   0.2471
  1.0163  0.7285  0.6521  0.6521  0.3285  0.3285  0.3226  0.3226  0.2750  0.2750
  0.2648  0.2648  0.2237  0.2237  0.2094  0.1877  0.1877  0.1773  0.1773  0.2092
  0.2092  0.1134  0.1459  0.1459  0.1594  0.1488  0.1488  0.1252  0.1252  0.1075
  0.0983  0.0983  0.0956  0.0597  0.0542  0.0320

 Free energy of the ion-electron system (eV)
  ---------------------------------------------------
  alpha Z        PSCENC =      2397.92104513
  Ewald energy   TEWEN  =    142375.48984807
  -Hartree energ DENC   =   -226018.72364162
  -exchange      EXHF   =         0.00000000
  -V(xc)+E(xc)   XCENC  =      3561.13803967
  PAW double counting   =     94866.87887143   -94077.21037446
  entropy T*S    EENTRO =        -0.05968341
  eigenvalues    EBANDS =    -11853.78434447
  atomic energy  EATOM  =     87776.77885653
  Solvation  Ediel_sol  =         0.00000000
  ---------------------------------------------------
  free energy    TOTEN  =      -971.57138313 eV

  energy without entropy =     -971.51169972  energy(sigma->0) =     -971.54154143


--------------------------------------------------------------------------------------------------------




--------------------------------------- Iteration      2(  38)  ---------------------------------------


    POTLOK:  cpu time      0.0571: real time      0.0571
    SETDIJ:  cpu time      0.9630: real time      0.9637
    EDDIAG:  cpu time      0.6819: real time      0.6821
  RMM-DIIS:  cpu time      3.1543: real time      3.1561
    ORTHCH:  cpu time      0.1406: real time      0.1406
       DOS:  cpu time      0.0009: real time      0.0009
    CHARGE:  cpu time      0.2694: real time      0.2701
    MIXING:  cpu time      0.0059: real time      0.0059
    --------------------------------------------
      LOOP:  cpu time      5.2730: real time      5.2765

 eigenvalue-minimisations  :  5260
 total energy-change (2. order) :-0.1432423E+01  (-0.1019270E+01)
 number of electron    1168.0000015 magnetization      25.0942155
 augmentation part       34.6513608 magnetization       1.6994829

 Broyden mixing:
  rms(total) = 0.11082E+02    rms(broyden)= 0.11082E+02
  rms(prec ) = 0.12206E+02
  weight for this iteration     100.00

 eigenvalues of (default mixing * dielectric matrix)
  average eigenvalue GAMMA=   0.2511
  1.0185  0.7275  0.6523  0.6523  0.3380  0.3380  0.3227  0.3227  0.2612  0.2612
  0.2505  0.2779  0.2779  0.2037  0.2037  0.2654  0.2654  0.1878  0.1878  0.1134
  0.2090  0.2090  0.1448  0.1448  0.1590  0.1497  0.1497  0.1157  0.1157  0.1257
  0.1257  0.1074  0.0983  0.0983  0.0954  0.0597  0.0542

 Free energy of the ion-electron system (eV)
  ---------------------------------------------------
  alpha Z        PSCENC =      2397.92104513
  Ewald energy   TEWEN  =    142375.48984807
  -Hartree energ DENC   =   -226020.29371683
  -exchange      EXHF   =         0.00000000
  -V(xc)+E(xc)   XCENC  =      3561.13778368
  PAW double counting   =     94865.09901920   -94075.34148292
  entropy T*S    EENTRO =        -0.06011896
  eigenvalues    EBANDS =    -11853.73504036
  atomic energy  EATOM  =     87776.77885653
  Solvation  Ediel_sol  =         0.00000000
  ---------------------------------------------------
  free energy    TOTEN  =      -973.00380646 eV

  energy without entropy =     -972.94368750  energy(sigma->0) =     -972.97374698


--------------------------------------------------------------------------------------------------------




--------------------------------------- Iteration      2(  39)  ---------------------------------------


    POTLOK:  cpu time      0.0617: real time      0.0616
    SETDIJ:  cpu time      0.9734: real time      0.9737
    EDDIAG:  cpu time      0.6840: real time      0.6841
  RMM-DIIS:  cpu time      3.1530: real time      3.1543
    ORTHCH:  cpu time      0.1360: real time      0.1367
       DOS:  cpu time      0.0011: real time      0.0011
    CHARGE:  cpu time      0.2633: real time      0.2634
    MIXING:  cpu time      0.0063: real time      0.0063
    --------------------------------------------
      LOOP:  cpu time      5.2787: real time      5.2810

 eigenvalue-minimisations  :  5251
 total energy-change (2. order) :-0.1118865E+01  (-0.8853302E+00)
 number of electron    1168.0000015 magnetization      25.0942583
 augmentation part       34.6489764 magnetization       1.5846611

 Broyden mixing:
  rms(total) = 0.11088E+02    rms(broyden)= 0.11088E+02
  rms(prec ) = 0.12213E+02
  weight for this iteration     100.00

 eigenvalues of (default mixing * dielectric matrix)
  average eigenvalue GAMMA=   0.2571
  1.0145  0.7317  0.6517  0.6517  0.3617  0.3617  0.3176  0.3176  0.3215  0.3215
  0.2472  0.2067  0.2067  0.2594  0.2594  0.1880  0.1880  0.2628  0.2628  0.2280
  0.2280  0.1134  0.2094  0.2094  0.1471  0.1471  0.1611  0.1492  0.1492  0.1275
  0.1275  0.1288  0.1074  0.0982  0.0982  0.0952  0.0597  0.0542

 Free energy of the ion-electron system (eV)
  ---------------------------------------------------
  alpha Z        PSCENC =      2397.92104513
  Ewald energy   TEWEN  =    142375.48984807
  -Hartree energ DENC   =   -226022.57210937
  -exchange      EXHF   =         0.00000000
  -V(xc)+E(xc)   XCENC  =      3561.16322102
  PAW double counting   =     94869.69509478   -94079.94662253
  entropy T*S    EENTRO =        -0.06813039
  eigenvalues    EBANDS =    -11852.58387512
  atomic energy  EATOM  =     87776.77885653
  Solvation  Ediel_sol  =         0.00000000
  ---------------------------------------------------
  free energy    TOTEN  =      -974.12267188 eV

  energy without entropy =     -974.05454149  energy(sigma->0) =     -974.08860669


--------------------------------------------------------------------------------------------------------




--------------------------------------- Iteration      2(  40)  ---------------------------------------


    POTLOK:  cpu time      0.0585: real time      0.0585
    SETDIJ:  cpu time      0.9635: real time      0.9638
    EDDIAG:  cpu time      0.6836: real time      0.6837
  RMM-DIIS:  cpu time      3.1661: real time      3.1678
    ORTHCH:  cpu time      0.1372: real time      0.1372
       DOS:  cpu time      0.0007: real time      0.0007
    CHARGE:  cpu time      0.2671: real time      0.2671
    MIXING:  cpu time      0.0062: real time      0.0062
    --------------------------------------------
      LOOP:  cpu time      5.2829: real time      5.2851

 eigenvalue-minimisations  :  5242
 total energy-change (2. order) :-0.9685747E+00  (-0.8600548E+00)
 number of electron    1168.0000015 magnetization      25.1017195
 augmentation part       34.6297680 magnetization       1.6347601

 Broyden mixing:
  rms(total) = 0.11100E+02    rms(broyden)= 0.11100E+02
  rms(prec ) = 0.12228E+02
  weight for this iteration     100.00

 eigenvalues of (default mixing * dielectric matrix)
  average eigenvalue GAMMA=   0.2499
  1.0136  0.7330  0.6518  0.6518  0.3585  0.3585  0.3154  0.3154  0.3218  0.3218
  0.2566  0.2067  0.2067  0.2643  0.2643  0.2631  0.2631  0.1879  0.1879  0.2125
  0.2125  0.1134  0.2092  0.2092  0.1468  0.1468  0.1605  0.1489  0.1489  0.1270
  0.1270  0.1235  0.1074  0.0982  0.0982  0.0952  0.0597  0.0542  0.0043

 Free energy of the ion-electron system (eV)
  ---------------------------------------------------
  alpha Z        PSCENC =      2397.92104513
  Ewald energy   TEWEN  =    142375.48984807
  -Hartree energ DENC   =   -226022.56101723
  -exchange      EXHF   =         0.00000000
  -V(xc)+E(xc)   XCENC  =      3561.16799069
  PAW double counting   =     94869.68302085   -94079.93381276
  entropy T*S    EENTRO =        -0.07194290
  eigenvalues    EBANDS =    -11853.56523500
  atomic energy  EATOM  =     87776.77885653
  Solvation  Ediel_sol  =         0.00000000
  ---------------------------------------------------
  free energy    TOTEN  =      -975.09124663 eV

  energy without entropy =     -975.01930372  energy(sigma->0) =     -975.05527518


--------------------------------------------------------------------------------------------------------




--------------------------------------- Iteration      2(  41)  ---------------------------------------


    POTLOK:  cpu time      0.0582: real time      0.0582
    SETDIJ:  cpu time      0.9739: real time      0.9746
    EDDIAG:  cpu time      0.6823: real time      0.6825
  RMM-DIIS:  cpu time      3.1546: real time      3.1572
    ORTHCH:  cpu time      0.1370: real time      0.1370
       DOS:  cpu time      0.0007: real time      0.0007
    CHARGE:  cpu time      0.2639: real time      0.2639
    MIXING:  cpu time      0.0064: real time      0.0064
    --------------------------------------------
      LOOP:  cpu time      5.2770: real time      5.2805

 eigenvalue-minimisations  :  5238
 total energy-change (2. order) :-0.1154313E+01  (-0.8981173E+00)
 number of electron    1168.0000015 magnetization      25.1021024
 augmentation part       34.6693635 magnetization       1.8585897

 Broyden mixing:
  rms(total) = 0.11120E+02    rms(broyden)= 0.11120E+02
  rms(prec ) = 0.12254E+02
  weight for this iteration     100.00

 eigenvalues of (default mixing * dielectric matrix)
  average eigenvalue GAMMA=   0.2449
  1.0149  0.7310  0.6520  0.6520  0.3553  0.3553  0.3092  0.3092  0.2674  0.3219
  0.3219  0.2066  0.2066  0.2678  0.2678  0.2634  0.2634  0.1879  0.1879  0.2040
  0.2040  0.2094  0.2094  0.1134  0.1469  0.1469  0.1606  0.1491  0.1491  0.1273
  0.1273  0.1281  0.1074  0.0982  0.0982  0.0952  0.0597  0.0542  0.0330  0.0330

 Free energy of the ion-electron system (eV)
  ---------------------------------------------------
  alpha Z        PSCENC =      2397.92104513
  Ewald energy   TEWEN  =    142375.48984807
  -Hartree energ DENC   =   -226025.12475357
  -exchange      EXHF   =         0.00000000
  -V(xc)+E(xc)   XCENC  =      3561.17814693
  PAW double counting   =     94872.31966965   -94082.39118011
  entropy T*S    EENTRO =        -0.07254975
  eigenvalues    EBANDS =    -11852.34464222
  atomic energy  EATOM  =     87776.77885653
  Solvation  Ediel_sol  =         0.00000000
  ---------------------------------------------------
  free energy    TOTEN  =      -976.24555934 eV

  energy without entropy =     -976.17300958  energy(sigma->0) =     -976.20928446


--------------------------------------------------------------------------------------------------------




--------------------------------------- Iteration      2(  42)  ---------------------------------------


    POTLOK:  cpu time      0.0577: real time      0.0577
    SETDIJ:  cpu time      0.9603: real time      0.9615
    EDDIAG:  cpu time      0.6845: real time      0.6848
  RMM-DIIS:  cpu time      3.1464: real time      3.1476
    ORTHCH:  cpu time      0.1367: real time      0.1367
       DOS:  cpu time      0.0007: real time      0.0007
    CHARGE:  cpu time      0.2684: real time      0.2689
    MIXING:  cpu time      0.0065: real time      0.0065
    --------------------------------------------
      LOOP:  cpu time      5.2611: real time      5.2644

 eigenvalue-minimisations  :  5266
 total energy-change (2. order) :-0.1534600E+01  (-0.9582272E+00)
 number of electron    1168.0000015 magnetization      25.1057736
 augmentation part       34.6072959 magnetization       2.3039496

 Broyden mixing:
  rms(total) = 0.11154E+02    rms(broyden)= 0.11154E+02
  rms(prec ) = 0.12293E+02
  weight for this iteration     100.00

 eigenvalues of (default mixing * dielectric matrix)
  average eigenvalue GAMMA=   0.2397
  1.0148  0.7310  0.6520  0.6520  0.3552  0.3552  0.3095  0.3095  0.3219  0.3219
  0.2662  0.2678  0.2678  0.2066  0.2066  0.2634  0.2634  0.1879  0.1879  0.2028
  0.2028  0.2094  0.2094  0.1134  0.1468  0.1468  0.1606  0.1492  0.1492  0.1273
  0.1273  0.1285  0.1074  0.0982  0.0982  0.0953  0.0597  0.0542  0.0170  0.0411
  0.0411

 Free energy of the ion-electron system (eV)
  ---------------------------------------------------
  alpha Z        PSCENC =      2397.92104513
  Ewald energy   TEWEN  =    142375.48984807
  -Hartree energ DENC   =   -226027.72720619
  -exchange      EXHF   =         0.00000000
  -V(xc)+E(xc)   XCENC  =      3561.30910575
  PAW double counting   =     94875.92174272   -94086.13917891
  entropy T*S    EENTRO =        -0.05238924
  eigenvalues    EBANDS =    -11851.28198313
  atomic energy  EATOM  =     87776.77885653
  Solvation  Ediel_sol  =         0.00000000
  ---------------------------------------------------
  free energy    TOTEN  =      -977.78015927 eV

  energy without entropy =     -977.72777003  energy(sigma->0) =     -977.75396465


--------------------------------------------------------------------------------------------------------




--------------------------------------- Iteration      2(  43)  ---------------------------------------


    POTLOK:  cpu time      0.0571: real time      0.0571
    SETDIJ:  cpu time      0.9736: real time      0.9739
    EDDIAG:  cpu time      0.6857: real time      0.6857
  RMM-DIIS:  cpu time      3.1849: real time      3.1866
    ORTHCH:  cpu time      0.1367: real time      0.1367
       DOS:  cpu time      0.0011: real time      0.0011
    CHARGE:  cpu time      0.2686: real time      0.2686
    MIXING:  cpu time      0.0069: real time      0.0069
    --------------------------------------------
      LOOP:  cpu time      5.3146: real time      5.3166

 eigenvalue-minimisations  :  5254
 total energy-change (2. order) :-0.8524701E+00  (-0.8907137E+00)
 number of electron    1168.0000015 magnetization      25.1063289
 augmentation part       34.6538131 magnetization       2.3591041

 Broyden mixing:
  rms(total) = 0.11195E+02    rms(broyden)= 0.11195E+02
  rms(prec ) = 0.12340E+02
  weight for this iteration     100.00

 eigenvalues of (default mixing * dielectric matrix)
  average eigenvalue GAMMA=   0.2450
  1.0163  0.7300  0.6520  0.6520  0.3143  0.3143  0.3446  0.3446  0.3222  0.3222
  0.2368  0.2072  0.2072  0.2774  0.2774  0.2117  0.2117  0.2635  0.2635  0.1882
  0.1882  0.1134  0.2015  0.2015  0.2094  0.2094  0.1477  0.1477  0.1615  0.1481
  0.1481  0.1297  0.1297  0.1228  0.1228  0.1074  0.0982  0.0982  0.0954  0.0597
  0.0542  0.0391

 Free energy of the ion-electron system (eV)
  ---------------------------------------------------
  alpha Z        PSCENC =      2397.92104513
  Ewald energy   TEWEN  =    142375.48984807
  -Hartree energ DENC   =   -226027.23724383
  -exchange      EXHF   =         0.00000000
  -V(xc)+E(xc)   XCENC  =      3561.35424207
  PAW double counting   =     94873.88831986   -94084.13967035
  entropy T*S    EENTRO =        -0.04992336
  eigenvalues    EBANDS =    -11852.63810352
  atomic energy  EATOM  =     87776.77885653
  Solvation  Ediel_sol  =         0.00000000
  ---------------------------------------------------
  free energy    TOTEN  =      -978.63262941 eV

  energy without entropy =     -978.58270605  energy(sigma->0) =     -978.60766773


--------------------------------------------------------------------------------------------------------




--------------------------------------- Iteration      2(  44)  ---------------------------------------


    POTLOK:  cpu time      0.0571: real time      0.0571
    SETDIJ:  cpu time      0.9741: real time      0.9747
    EDDIAG:  cpu time      0.6857: real time      0.6859
  RMM-DIIS:  cpu time      3.1648: real time      3.1666
    ORTHCH:  cpu time      0.1377: real time      0.1377
       DOS:  cpu time      0.0008: real time      0.0008
    CHARGE:  cpu time      0.2683: real time      0.2684
    MIXING:  cpu time      0.0070: real time      0.0070
    --------------------------------------------
      LOOP:  cpu time      5.2955: real time      5.2982

 eigenvalue-minimisations  :  5232
 total energy-change (2. order) :-0.1021899E+01  (-0.8287185E+00)
 number of electron    1168.0000015 magnetization      25.1124167
 augmentation part       34.6190925 magnetization       2.3767175

 Broyden mixing:
  rms(total) = 0.11198E+02    rms(broyden)= 0.11198E+02
  rms(prec ) = 0.12345E+02
  weight for this iteration     100.00

 eigenvalues of (default mixing * dielectric matrix)
  average eigenvalue GAMMA=   0.2535
  1.0068  0.7400  0.6511  0.6511  0.3537  0.3537  0.3727  0.3727  0.3201  0.3229
  0.3229  0.2862  0.2862  0.2072  0.2072  0.2857  0.2857  0.1907  0.1882  0.1882
  0.2657  0.2657  0.1134  0.1940  0.1940  0.2097  0.2097  0.1638  0.1466  0.1466
  0.1536  0.1536  0.1409  0.1409  0.1276  0.1276  0.1074  0.0982  0.0982  0.0953
  0.0597  0.0542  0.0396

 Free energy of the ion-electron system (eV)
  ---------------------------------------------------
  alpha Z        PSCENC =      2397.92104513
  Ewald energy   TEWEN  =    142375.48984807
  -Hartree energ DENC   =   -226028.51230159
  -exchange      EXHF   =         0.00000000
  -V(xc)+E(xc)   XCENC  =      3561.33644176
  PAW double counting   =     94874.58782979   -94084.86334814
  entropy T*S    EENTRO =        -0.04922847
  eigenvalues    EBANDS =    -11852.34367176
  atomic energy  EATOM  =     87776.77885653
  Solvation  Ediel_sol  =         0.00000000
  ---------------------------------------------------
  free energy    TOTEN  =      -979.65452868 eV

  energy without entropy =     -979.60530021  energy(sigma->0) =     -979.62991444


--------------------------------------------------------------------------------------------------------




--------------------------------------- Iteration      2(  45)  ---------------------------------------


    POTLOK:  cpu time      0.0584: real time      0.0584
    SETDIJ:  cpu time      0.9728: real time      0.9734
    EDDIAG:  cpu time      0.6827: real time      0.6830
  RMM-DIIS:  cpu time      3.1418: real time      3.1436
    ORTHCH:  cpu time      0.1379: real time      0.1379
       DOS:  cpu time      0.0007: real time      0.0007
    CHARGE:  cpu time      0.2683: real time      0.2693
    MIXING:  cpu time      0.0072: real time      0.0072
    --------------------------------------------
      LOOP:  cpu time      5.2698: real time      5.2735

 eigenvalue-minimisations  :  5234
 total energy-change (2. order) :-0.1014790E+01  (-0.8082462E+00)
 number of electron    1168.0000015 magnetization      25.1150239
 augmentation part       34.6332742 magnetization       2.3318005

 Broyden mixing:
  rms(total) = 0.11223E+02    rms(broyden)= 0.11223E+02
  rms(prec ) = 0.12374E+02
  weight for this iteration     100.00

 eigenvalues of (default mixing * dielectric matrix)
  average eigenvalue GAMMA=   0.2623
  0.9953  0.7504  0.6500  0.6500  0.3910  0.3910  0.3647  0.3647  0.3907  0.3907
  0.3207  0.3207  0.3225  0.3225  0.2074  0.2074  0.2961  0.2961  0.1995  0.1882
  0.1882  0.2665  0.2665  0.1134  0.2123  0.2123  0.1913  0.1913  0.1667  0.1626
  0.1626  0.1453  0.1453  0.1458  0.1458  0.1274  0.1274  0.1074  0.0982  0.0982
  0.0953  0.0597  0.0542  0.0395

 Free energy of the ion-electron system (eV)
  ---------------------------------------------------
  alpha Z        PSCENC =      2397.92104513
  Ewald energy   TEWEN  =    142375.48984807
  -Hartree energ DENC   =   -226028.90148955
  -exchange      EXHF   =         0.00000000
  -V(xc)+E(xc)   XCENC  =      3561.26417660
  PAW double counting   =     94873.32670572   -94083.66659397
  entropy T*S    EENTRO =        -0.04851421
  eigenvalues    EBANDS =    -11852.83335326
  atomic energy  EATOM  =     87776.77885653
  Solvation  Ediel_sol  =         0.00000000
  ---------------------------------------------------
  free energy    TOTEN  =      -980.66931894 eV

  energy without entropy =     -980.62080473  energy(sigma->0) =     -980.64506184


--------------------------------------------------------------------------------------------------------




--------------------------------------- Iteration      2(  46)  ---------------------------------------


    POTLOK:  cpu time      0.0575: real time      0.0575
    SETDIJ:  cpu time      0.9736: real time      0.9740
    EDDIAG:  cpu time      0.6870: real time      0.6870
  RMM-DIIS:  cpu time      3.1595: real time      3.1611
    ORTHCH:  cpu time      0.1373: real time      0.1378
       DOS:  cpu time      0.0007: real time      0.0007
    CHARGE:  cpu time      0.2714: real time      0.2714
    MIXING:  cpu time      0.0081: real time      0.0081
    --------------------------------------------
      LOOP:  cpu time      5.2951: real time      5.2976

 eigenvalue-minimisations  :  5278
 total energy-change (2. order) :-0.6196959E+00  (-0.9213745E+00)
 number of electron    1168.0000015 magnetization      25.3080983
 augmentation part       34.3937438 magnetization       2.4375431

 Broyden mixing:
  rms(total) = 0.11211E+02    rms(broyden)= 0.11211E+02
  rms(prec ) = 0.12356E+02
  weight for this iteration     100.00

 eigenvalues of (default mixing * dielectric matrix)
  average eigenvalue GAMMA=   0.2246
  0.7262  0.3739  0.3739  0.3388  0.3388  0.3883  0.3883  0.2092  0.2092  0.1956
  0.3332  0.3332  0.1850  0.1850  0.3225  0.3225  0.3394  0.3394  0.3494  0.1106
  0.0393  0.0037  0.2155  0.2155  0.1840  0.1840  0.1945  0.1471  0.1471  0.1839
  0.1579  0.1579  0.1568  0.0515  0.0596  0.1162  0.1162  0.0981  0.0981  0.0932

 Free energy of the ion-electron system (eV)
  ---------------------------------------------------
  alpha Z        PSCENC =      2397.92104513
  Ewald energy   TEWEN  =    142375.48984807
  -Hartree energ DENC   =   -226035.58713911
  -exchange      EXHF   =         0.00000000
  -V(xc)+E(xc)   XCENC  =      3561.17674002
  PAW double counting   =     94868.75706066   -94079.22971201
  entropy T*S    EENTRO =        -0.06179542
  eigenvalues    EBANDS =    -11846.53391869
  atomic energy  EATOM  =     87776.77885653
  Solvation  Ediel_sol  =         0.00000000
  ---------------------------------------------------
  free energy    TOTEN  =      -981.28901482 eV

  energy without entropy =     -981.22721940  energy(sigma->0) =     -981.25811711


--------------------------------------------------------------------------------------------------------




--------------------------------------- Iteration      2(  47)  ---------------------------------------


    POTLOK:  cpu time      0.0595: real time      0.0595
    SETDIJ:  cpu time      0.9612: real time      0.9615
    EDDIAG:  cpu time      0.6880: real time      0.6882
  RMM-DIIS:  cpu time      3.2865: real time      3.2881
    ORTHCH:  cpu time      0.1371: real time      0.1372
       DOS:  cpu time      0.0007: real time      0.0007
    CHARGE:  cpu time      0.2687: real time      0.2687
    MIXING:  cpu time      0.0063: real time      0.0063
    --------------------------------------------
      LOOP:  cpu time      5.4080: real time      5.4102

 eigenvalue-minimisations  :  5421
 total energy-change (2. order) : 0.6307743E+02  (-0.3093180E+02)
 number of electron    1168.0000015 magnetization      25.6592838
 augmentation part       24.2607286 magnetization       9.9544140

 Broyden mixing:
  rms(total) = 0.94313E+01    rms(broyden)= 0.94282E+01
  rms(prec ) = 0.10125E+02
  weight for this iteration     100.00

 eigenvalues of (default mixing * dielectric matrix)
  average eigenvalue GAMMA=   0.2392
  0.7153  0.7153  0.3944  0.3944  0.4077  0.4077  0.3604  0.3604  0.3497  0.3497
  0.2050  0.2050  0.1974  0.3338  0.3338  0.3223  0.3223  0.1837  0.1837  0.1106
  0.0388  0.2184  0.2184  0.2203  0.2203  0.1704  0.1704  0.2075  0.1617  0.1617
  0.1563  0.1448  0.1448  0.1294  0.0525  0.0579  0.1013  0.1013  0.0874  0.0874
  0.1030

 Free energy of the ion-electron system (eV)
  ---------------------------------------------------
  alpha Z        PSCENC =      2397.92104513
  Ewald energy   TEWEN  =    142375.48984807
  -Hartree energ DENC   =   -225796.52739869
  -exchange      EXHF   =         0.00000000
  -V(xc)+E(xc)   XCENC  =      3547.86789578
  PAW double counting   =     95582.96192887   -94745.98606008
  entropy T*S    EENTRO =        -0.14192445
  eigenvalues    EBANDS =    -12056.57577316
  atomic energy  EATOM  =     87776.77885653
  Solvation  Ediel_sol  =         0.00000000
  ---------------------------------------------------
  free energy    TOTEN  =      -918.21158200 eV

  energy without entropy =     -918.06965755  energy(sigma->0) =     -918.14061977


--------------------------------------------------------------------------------------------------------




--------------------------------------- Iteration      2(  48)  ---------------------------------------


    POTLOK:  cpu time      0.0572: real time      0.0572
    SETDIJ:  cpu time      0.9703: real time      0.9710
    EDDIAG:  cpu time      0.6896: real time      0.6900
  RMM-DIIS:  cpu time      3.3352: real time      3.3373
    ORTHCH:  cpu time      0.1364: real time      0.1365
       DOS:  cpu time      0.0008: real time      0.0008
    CHARGE:  cpu time      0.2701: real time      0.2711
    MIXING:  cpu time      0.0067: real time      0.0067
    --------------------------------------------
      LOOP:  cpu time      5.4663: real time      5.4705

 eigenvalue-minimisations  :  5430
 total energy-change (2. order) : 0.4515487E+01  (-0.2117872E+02)
 number of electron    1168.0000014 magnetization      26.1064907
 augmentation part       25.5581234 magnetization       5.8975167

 Broyden mixing:
  rms(total) = 0.86140E+01    rms(broyden)= 0.86121E+01
  rms(prec ) = 0.91241E+01
  weight for this iteration     100.00

 eigenvalues of (default mixing * dielectric matrix)
  average eigenvalue GAMMA=   0.2494
  0.9960  0.6596  0.3969  0.3969  0.3616  0.3616  0.3993  0.3993  0.4469  0.3458
  0.3458  0.2050  0.2050  0.1973  0.3282  0.3282  0.3393  0.3393  0.1840  0.1840
  0.1106  0.0389  0.2163  0.2163  0.2179  0.2179  0.1683  0.1683  0.2089  0.1621
  0.1621  0.1549  0.1447  0.1447  0.1296  0.0525  0.0580  0.1011  0.1011  0.0877
  0.0877  0.1037

 Free energy of the ion-electron system (eV)
  ---------------------------------------------------
  alpha Z        PSCENC =      2397.92104513
  Ewald energy   TEWEN  =    142375.48984807
  -Hartree energ DENC   =   -225253.33422268
  -exchange      EXHF   =         0.00000000
  -V(xc)+E(xc)   XCENC  =      3552.08605586
  PAW double counting   =     96050.70253045   -95229.59225067
  entropy T*S    EENTRO =        -0.10606515
  eigenvalues    EBANDS =    -12583.64189274
  atomic energy  EATOM  =     87776.77885653
  Solvation  Ediel_sol  =         0.00000000
  ---------------------------------------------------
  free energy    TOTEN  =      -913.69609521 eV

  energy without entropy =     -913.59003006  energy(sigma->0) =     -913.64306263


--------------------------------------------------------------------------------------------------------




--------------------------------------- Iteration      2(  49)  ---------------------------------------


    POTLOK:  cpu time      0.0572: real time      0.0572
    SETDIJ:  cpu time      0.9707: real time      0.9710
    EDDIAG:  cpu time      0.6857: real time      0.6857
  RMM-DIIS:  cpu time      3.2800: real time      3.2818
    ORTHCH:  cpu time      0.1369: real time      0.1369
       DOS:  cpu time      0.0009: real time      0.0009
    CHARGE:  cpu time      0.2675: real time      0.2675
    MIXING:  cpu time      0.0072: real time      0.0072
    --------------------------------------------
      LOOP:  cpu time      5.4061: real time      5.4083

 eigenvalue-minimisations  :  5420
 total energy-change (2. order) : 0.3977630E+02  (-0.9918476E+01)
 number of electron    1168.0000014 magnetization      26.2990998
 augmentation part       26.6715517 magnetization       7.0145742

 Broyden mixing:
  rms(total) = 0.82513E+01    rms(broyden)= 0.82494E+01
  rms(prec ) = 0.86999E+01
  weight for this iteration     100.00

 eigenvalues of (default mixing * dielectric matrix)
  average eigenvalue GAMMA=   0.2584
  1.3827  0.3998  0.3998  0.3613  0.3613  0.3976  0.3976  0.5069  0.5069  0.3434
  0.3434  0.4078  0.2049  0.2049  0.1973  0.3326  0.3326  0.3235  0.3235  0.1838
  0.1838  0.1107  0.0390  0.2149  0.2149  0.2236  0.1654  0.1654  0.2023  0.2023
  0.1627  0.1627  0.1551  0.1436  0.1436  0.1283  0.0525  0.0578  0.1015  0.1015
  0.0841  0.0841  0.1019

 Free energy of the ion-electron system (eV)
  ---------------------------------------------------
  alpha Z        PSCENC =      2397.92104513
  Ewald energy   TEWEN  =    142375.48984807
  -Hartree energ DENC   =   -225122.37467223
  -exchange      EXHF   =         0.00000000
  -V(xc)+E(xc)   XCENC  =      3557.89163928
  PAW double counting   =     96659.86060934   -95813.84939361
  entropy T*S    EENTRO =        -0.07685205
  eigenvalues    EBANDS =    -12705.56087716
  atomic energy  EATOM  =     87776.77885653
  Solvation  Ediel_sol  =         0.00000000
  ---------------------------------------------------
  free energy    TOTEN  =      -873.91979671 eV

  energy without entropy =     -873.84294466  energy(sigma->0) =     -873.88137069


--------------------------------------------------------------------------------------------------------




--------------------------------------- Iteration      2(  50)  ---------------------------------------


    POTLOK:  cpu time      0.0640: real time      0.0640
    SETDIJ:  cpu time      0.9656: real time      0.9663
    EDDIAG:  cpu time      0.6865: real time      0.6867
  RMM-DIIS:  cpu time      3.2551: real time      3.2566
    ORTHCH:  cpu time      0.1458: real time      0.1458
       DOS:  cpu time      0.0012: real time      0.0012
    CHARGE:  cpu time      0.2661: real time      0.2670
    MIXING:  cpu time      0.0075: real time      0.0075
    --------------------------------------------
      LOOP:  cpu time      5.3918: real time      5.3951

 eigenvalue-minimisations  :  5403
 total energy-change (2. order) : 0.2005062E+02  (-0.4474247E+01)
 number of electron    1168.0000014 magnetization      26.6696200
 augmentation part       26.5232599 magnetization       4.9011790

 Broyden mixing:
  rms(total) = 0.73541E+01    rms(broyden)= 0.73532E+01
  rms(prec ) = 0.76990E+01
  weight for this iteration     100.00

 eigenvalues of (default mixing * dielectric matrix)
  average eigenvalue GAMMA=   0.2688
  1.6744  0.5623  0.5623  0.4004  0.4004  0.3609  0.3609  0.3933  0.3933  0.4707
  0.3398  0.3398  0.2046  0.2046  0.1971  0.3319  0.3319  0.1836  0.1836  0.1106
  0.3174  0.3174  0.0394  0.2547  0.2547  0.2147  0.2147  0.1662  0.1662  0.1990
  0.1990  0.1543  0.1566  0.1566  0.1460  0.1460  0.1287  0.0517  0.0579  0.1016
  0.1016  0.0864  0.0864  0.1018

 Free energy of the ion-electron system (eV)
  ---------------------------------------------------
  alpha Z        PSCENC =      2397.92104513
  Ewald energy   TEWEN  =    142375.48984807
  -Hartree energ DENC   =   -225080.92077207
  -exchange      EXHF   =         0.00000000
  -V(xc)+E(xc)   XCENC  =      3558.90745956
  PAW double counting   =     97029.79578828   -96168.36866185
  entropy T*S    EENTRO =        -0.06623685
  eigenvalues    EBANDS =    -12743.40650725
  atomic energy  EATOM  =     87776.77885653
  Solvation  Ediel_sol  =         0.00000000
  ---------------------------------------------------
  free energy    TOTEN  =      -853.86918044 eV

  energy without entropy =     -853.80294360  energy(sigma->0) =     -853.83606202


--------------------------------------------------------------------------------------------------------




--------------------------------------- Iteration      2(  51)  ---------------------------------------


    POTLOK:  cpu time      0.0591: real time      0.0591
    SETDIJ:  cpu time      0.9652: real time      0.9656
    EDDIAG:  cpu time      0.6853: real time      0.6854
  RMM-DIIS:  cpu time      3.2309: real time      3.2320
    ORTHCH:  cpu time      0.1398: real time      0.1403
       DOS:  cpu time      0.0010: real time      0.0010
    CHARGE:  cpu time      0.2682: real time      0.2682
    MIXING:  cpu time      0.0083: real time      0.0083
    --------------------------------------------
      LOOP:  cpu time      5.3579: real time      5.3599

 eigenvalue-minimisations  :  5398
 total energy-change (2. order) : 0.2667209E+02  (-0.4594472E+01)
 number of electron    1168.0000014 magnetization      27.3484279
 augmentation part       27.4043750 magnetization       5.0428016

 Broyden mixing:
  rms(total) = 0.71866E+01    rms(broyden)= 0.71858E+01
  rms(prec ) = 0.75127E+01
  weight for this iteration     100.00

 eigenvalues of (default mixing * dielectric matrix)
  average eigenvalue GAMMA=   0.2636
  1.7672  0.5015  0.5015  0.3690  0.3690  0.3880  0.3880  0.3456  0.3456  0.3411
  0.3411  0.2021  0.2021  0.2007  0.3025  0.3025  0.3112  0.3112  0.1758  0.1758
  0.1178  0.2881  0.2881  0.0449  0.1463  0.1463  0.1636  0.1636  0.1807  0.1807
  0.1360  0.1360  0.1390  0.0529  0.0571  0.0893  0.0893  0.1048  0.1048  0.0745

 Free energy of the ion-electron system (eV)
  ---------------------------------------------------
  alpha Z        PSCENC =      2397.92104513
  Ewald energy   TEWEN  =    142375.48984807
  -Hartree energ DENC   =   -225000.99159791
  -exchange      EXHF   =         0.00000000
  -V(xc)+E(xc)   XCENC  =      3565.49564707
  PAW double counting   =     97475.94031939   -96599.76630895
  entropy T*S    EENTRO =        -0.06594600
  eigenvalues    EBANDS =    -12817.99895038
  atomic energy  EATOM  =     87776.77885653
  Solvation  Ediel_sol  =         0.00000000
  ---------------------------------------------------
  free energy    TOTEN  =      -827.19708705 eV

  energy without entropy =     -827.13114105  energy(sigma->0) =     -827.16411405


--------------------------------------------------------------------------------------------------------




--------------------------------------- Iteration      2(  52)  ---------------------------------------


    POTLOK:  cpu time      0.0594: real time      0.0594
    SETDIJ:  cpu time      0.9745: real time      0.9748
    EDDIAG:  cpu time      0.6855: real time      0.6857
  RMM-DIIS:  cpu time      3.2460: real time      3.2477
    ORTHCH:  cpu time      0.1405: real time      0.1406
       DOS:  cpu time      0.0010: real time      0.0010
    CHARGE:  cpu time      0.2706: real time      0.2706
    MIXING:  cpu time      0.0080: real time      0.0080
    --------------------------------------------
      LOOP:  cpu time      5.3855: real time      5.3878

 eigenvalue-minimisations  :  5395
 total energy-change (2. order) : 0.3334379E+02  (-0.5626983E+01)
 number of electron    1168.0000014 magnetization      27.6276148
 augmentation part       31.7976242 magnetization       3.6718841

 Broyden mixing:
  rms(total) = 0.85435E+01    rms(broyden)= 0.85422E+01
  rms(prec ) = 0.90122E+01
  weight for this iteration     100.00

 eigenvalues of (default mixing * dielectric matrix)
  average eigenvalue GAMMA=   0.2631
  1.8234  0.4937  0.4937  0.3765  0.3765  0.3873  0.3873  0.3480  0.3480  0.3417
  0.3417  0.2017  0.2017  0.2005  0.1175  0.1776  0.1776  0.2992  0.2992  0.3116
  0.3116  0.3302  0.0451  0.2371  0.2371  0.1365  0.1365  0.1796  0.1796  0.1704
  0.1704  0.1354  0.1354  0.1341  0.0574  0.0574  0.0570  0.0821  0.0821  0.1035
  0.1035

 Free energy of the ion-electron system (eV)
  ---------------------------------------------------
  alpha Z        PSCENC =      2397.92104513
  Ewald energy   TEWEN  =    142375.48984807
  -Hartree energ DENC   =   -225013.52568557
  -exchange      EXHF   =         0.00000000
  -V(xc)+E(xc)   XCENC  =      3578.18421418
  PAW double counting   =     97743.05745401   -96839.83623386
  entropy T*S    EENTRO =        -0.08003173
  eigenvalues    EBANDS =    -12811.84276786
  atomic energy  EATOM  =     87776.77885653
  Solvation  Ediel_sol  =         0.00000000
  ---------------------------------------------------
  free energy    TOTEN  =      -793.85330110 eV

  energy without entropy =     -793.77326938  energy(sigma->0) =     -793.81328524


--------------------------------------------------------------------------------------------------------




--------------------------------------- Iteration      2(  53)  ---------------------------------------


    POTLOK:  cpu time      0.0587: real time      0.0587
    SETDIJ:  cpu time      0.9612: real time      0.9619
    EDDIAG:  cpu time      0.6859: real time      0.6862
  RMM-DIIS:  cpu time      3.2497: real time      3.2513
    ORTHCH:  cpu time      0.1414: real time      0.1414
       DOS:  cpu time      0.0006: real time      0.0006
    CHARGE:  cpu time      0.2657: real time      0.2664
    MIXING:  cpu time      0.0072: real time      0.0072
    --------------------------------------------
      LOOP:  cpu time      5.3703: real time      5.3736

 eigenvalue-minimisations  :  5376
 total energy-change (2. order) : 0.1992710E+02  (-0.3716298E+00)
 number of electron    1168.0000014 magnetization      28.4359418
 augmentation part       29.0675821 magnetization       3.2055123

 Broyden mixing:
  rms(total) = 0.67520E+01    rms(broyden)= 0.67514E+01
  rms(prec ) = 0.70559E+01
  weight for this iteration     100.00

 eigenvalues of (default mixing * dielectric matrix)
  average eigenvalue GAMMA=   0.2713
  1.8646  0.5491  0.5491  0.3734  0.3734  0.3833  0.3833  0.3420  0.3420  0.3347
  0.3347  0.3907  0.3907  0.2024  0.2024  0.2009  0.3030  0.3030  0.1185  0.1773
  0.1773  0.3041  0.3041  0.2804  0.0444  0.1418  0.1418  0.1932  0.1932  0.1724
  0.1724  0.1804  0.1365  0.1365  0.1365  0.0545  0.0571  0.0855  0.0855  0.1030
  0.1030  0.0715

 Free energy of the ion-electron system (eV)
  ---------------------------------------------------
  alpha Z        PSCENC =      2397.92104513
  Ewald energy   TEWEN  =    142375.48984807
  -Hartree energ DENC   =   -224945.35484586
  -exchange      EXHF   =         0.00000000
  -V(xc)+E(xc)   XCENC  =      3582.92962630
  PAW double counting   =     97922.33598601   -97009.51034382
  entropy T*S    EENTRO =        -0.06941171
  eigenvalues    EBANDS =    -12874.44696116
  atomic energy  EATOM  =     87776.77885653
  Solvation  Ediel_sol  =         0.00000000
  ---------------------------------------------------
  free energy    TOTEN  =      -773.92620050 eV

  energy without entropy =     -773.85678879  energy(sigma->0) =     -773.89149464


--------------------------------------------------------------------------------------------------------




--------------------------------------- Iteration      2(  54)  ---------------------------------------


    POTLOK:  cpu time      0.0582: real time      0.0582
    SETDIJ:  cpu time      0.9626: real time      0.9630
    EDDIAG:  cpu time      0.6838: real time      0.6838
  RMM-DIIS:  cpu time      3.2513: real time      3.2528
    ORTHCH:  cpu time      0.1374: real time      0.1374
       DOS:  cpu time      0.0006: real time      0.0006
    CHARGE:  cpu time      0.2681: real time      0.2681
    MIXING:  cpu time      0.0068: real time      0.0068
    --------------------------------------------
      LOOP:  cpu time      5.3687: real time      5.3707

 eigenvalue-minimisations  :  5376
 total energy-change (2. order) : 0.4082293E+01  (-0.3256159E+01)
 number of electron    1168.0000014 magnetization      29.0114641
 augmentation part       29.4156092 magnetization       4.8763261

 Broyden mixing:
  rms(total) = 0.75582E+01    rms(broyden)= 0.75577E+01
  rms(prec ) = 0.79379E+01
  weight for this iteration     100.00

 eigenvalues of (default mixing * dielectric matrix)
  average eigenvalue GAMMA=   0.2802
  1.9201  0.6741  0.6741  0.3766  0.3766  0.3433  0.3433  0.3826  0.3826  0.4306
  0.4306  0.3415  0.3415  0.2031  0.2031  0.2009  0.3051  0.3051  0.1185  0.1775
  0.1775  0.3364  0.3008  0.3008  0.0450  0.2189  0.2189  0.1363  0.1363  0.1732
  0.1732  0.1782  0.1782  0.0495  0.0495  0.1358  0.1358  0.1356  0.0573  0.0871
  0.0871  0.1034  0.1034

 Free energy of the ion-electron system (eV)
  ---------------------------------------------------
  alpha Z        PSCENC =      2397.92104513
  Ewald energy   TEWEN  =    142375.48984807
  -Hartree energ DENC   =   -224929.65054053
  -exchange      EXHF   =         0.00000000
  -V(xc)+E(xc)   XCENC  =      3588.99576140
  PAW double counting   =     97999.92732235   -97088.54208638
  entropy T*S    EENTRO =        -0.08987277
  eigenvalues    EBANDS =    -12890.67424094
  atomic energy  EATOM  =     87776.77885653
  Solvation  Ediel_sol  =         0.00000000
  ---------------------------------------------------
  free energy    TOTEN  =      -769.84390713 eV

  energy without entropy =     -769.75403436  energy(sigma->0) =     -769.79897075


--------------------------------------------------------------------------------------------------------




--------------------------------------- Iteration      2(  55)  ---------------------------------------


    POTLOK:  cpu time      0.0578: real time      0.0578
    SETDIJ:  cpu time      0.9711: real time      0.9716
    EDDIAG:  cpu time      0.6850: real time      0.6853
  RMM-DIIS:  cpu time      3.2492: real time      3.2523
    ORTHCH:  cpu time      0.1368: real time      0.1368
       DOS:  cpu time      0.0007: real time      0.0007
    CHARGE:  cpu time      0.2684: real time      0.2684
    MIXING:  cpu time      0.0069: real time      0.0069
    --------------------------------------------
      LOOP:  cpu time      5.3758: real time      5.3798

 eigenvalue-minimisations  :  5384
 total energy-change (2. order) : 0.2083442E+02  (-0.1286008E+01)
 number of electron    1168.0000014 magnetization      29.4470697
 augmentation part       29.6320161 magnetization       6.5929510

 Broyden mixing:
  rms(total) = 0.70374E+01    rms(broyden)= 0.70372E+01
  rms(prec ) = 0.73969E+01
  weight for this iteration     100.00

 eigenvalues of (default mixing * dielectric matrix)
  average eigenvalue GAMMA=   0.2887
  1.9619  0.7793  0.7793  0.3754  0.3754  0.3862  0.3862  0.3406  0.3406  0.4477
  0.4477  0.3387  0.3387  0.2029  0.2029  0.2009  0.3883  0.3040  0.3040  0.1185
  0.1772  0.1772  0.2993  0.2993  0.0447  0.2686  0.2686  0.1386  0.1386  0.1956
  0.1956  0.1739  0.1739  0.1724  0.1366  0.1366  0.1341  0.0572  0.0572  0.0579
  0.0872  0.0872  0.1033  0.1033

 Free energy of the ion-electron system (eV)
  ---------------------------------------------------
  alpha Z        PSCENC =      2397.92104513
  Ewald energy   TEWEN  =    142375.48984807
  -Hartree energ DENC   =   -224912.79215943
  -exchange      EXHF   =         0.00000000
  -V(xc)+E(xc)   XCENC  =      3595.65384014
  PAW double counting   =     98115.17225885   -97189.73608530
  entropy T*S    EENTRO =        -0.07785717
  eigenvalues    EBANDS =    -12907.41923682
  atomic energy  EATOM  =     87776.77885653
  Solvation  Ediel_sol  =         0.00000000
  ---------------------------------------------------
  free energy    TOTEN  =      -749.00948999 eV

  energy without entropy =     -748.93163282  energy(sigma->0) =     -748.97056141


--------------------------------------------------------------------------------------------------------




--------------------------------------- Iteration      2(  56)  ---------------------------------------


    POTLOK:  cpu time      0.0588: real time      0.0588
    SETDIJ:  cpu time      0.9714: real time      0.9721
    EDDIAG:  cpu time      0.6869: real time      0.6871
  RMM-DIIS:  cpu time      3.2484: real time      3.2498
    ORTHCH:  cpu time      0.1378: real time      0.1384
       DOS:  cpu time      0.0009: real time      0.0009
    CHARGE:  cpu time      0.2696: real time      0.2696
    MIXING:  cpu time      0.0083: real time      0.0083
    --------------------------------------------
      LOOP:  cpu time      5.3820: real time      5.3850

 eigenvalue-minimisations  :  5378
 total energy-change (2. order) : 0.2134968E+02  (-0.1647056E+01)
 number of electron    1168.0000014 magnetization      29.5047543
 augmentation part       29.5875975 magnetization       8.1689514

 Broyden mixing:
  rms(total) = 0.71394E+01    rms(broyden)= 0.71389E+01
  rms(prec ) = 0.75112E+01
  weight for this iteration     100.00

 eigenvalues of (default mixing * dielectric matrix)
  average eigenvalue GAMMA=   0.2851
  1.4265  0.7957  0.7957  0.3554  0.3554  0.3641  0.3641  0.4656  0.4656  0.3567
  0.3567  0.2141  0.1792  0.1792  0.2940  0.2940  0.1057  0.2824  0.2824  0.3345
  0.3345  0.1618  0.1618  0.0379  0.2434  0.2434  0.2083  0.2083  0.1838  0.1838
  0.1758  0.1758  0.0542  0.0618  0.1513  0.1237  0.1237  0.1150  0.0903  0.0959

 Free energy of the ion-electron system (eV)
  ---------------------------------------------------
  alpha Z        PSCENC =      2397.92104513
  Ewald energy   TEWEN  =    142375.48984807
  -Hartree energ DENC   =   -224926.50780027
  -exchange      EXHF   =         0.00000000
  -V(xc)+E(xc)   XCENC  =      3604.55023843
  PAW double counting   =     98232.88587135   -97293.92124189
  entropy T*S    EENTRO =        -0.08819047
  eigenvalues    EBANDS =    -12894.76844118
  atomic energy  EATOM  =     87776.77885653
  Solvation  Ediel_sol  =         0.00000000
  ---------------------------------------------------
  free energy    TOTEN  =      -727.65981430 eV

  energy without entropy =     -727.57162384  energy(sigma->0) =     -727.61571907


--------------------------------------------------------------------------------------------------------




--------------------------------------- Iteration      2(  57)  ---------------------------------------


    POTLOK:  cpu time      0.0581: real time      0.0581
    SETDIJ:  cpu time      0.9759: real time      0.9762
    EDDIAG:  cpu time      0.6863: real time      0.6865
  RMM-DIIS:  cpu time      3.2438: real time      3.2455
    ORTHCH:  cpu time      0.1378: real time      0.1378
       DOS:  cpu time      0.0010: real time      0.0010
    CHARGE:  cpu time      0.2671: real time      0.2672
    MIXING:  cpu time      0.0069: real time      0.0069
    --------------------------------------------
      LOOP:  cpu time      5.3768: real time      5.3790

 eigenvalue-minimisations  :  5371
 total energy-change (2. order) :-0.2034241E+01  (-0.9350313E+00)
 number of electron    1168.0000014 magnetization      29.9965915
 augmentation part       28.9114549 magnetization       6.5296692

 Broyden mixing:
  rms(total) = 0.67570E+01    rms(broyden)= 0.67567E+01
  rms(prec ) = 0.70665E+01
  weight for this iteration     100.00

 eigenvalues of (default mixing * dielectric matrix)
  average eigenvalue GAMMA=   0.2895
  1.2593  0.8181  0.8181  0.5313  0.5313  0.3698  0.3698  0.3584  0.3336  0.3688
  0.3688  0.4543  0.3047  0.3047  0.2150  0.1786  0.1786  0.2874  0.2874  0.1066
  0.1623  0.1623  0.3045  0.3045  0.0368  0.2306  0.2306  0.2373  0.2373  0.1821
  0.1821  0.0542  0.0605  0.1647  0.1647  0.1577  0.1308  0.1308  0.0901  0.1006
  0.1006

 Free energy of the ion-electron system (eV)
  ---------------------------------------------------
  alpha Z        PSCENC =      2397.92104513
  Ewald energy   TEWEN  =    142375.48984807
  -Hartree energ DENC   =   -224987.52827164
  -exchange      EXHF   =         0.00000000
  -V(xc)+E(xc)   XCENC  =      3604.03623788
  PAW double counting   =     98130.63256091   -97198.03423556
  entropy T*S    EENTRO =        -0.09309689
  eigenvalues    EBANDS =    -12828.89699947
  atomic energy  EATOM  =     87776.77885653
  Solvation  Ediel_sol  =         0.00000000
  ---------------------------------------------------
  free energy    TOTEN  =      -729.69405504 eV

  energy without entropy =     -729.60095814  energy(sigma->0) =     -729.64750659


--------------------------------------------------------------------------------------------------------




--------------------------------------- Iteration      2(  58)  ---------------------------------------


    POTLOK:  cpu time      0.0585: real time      0.0585
    SETDIJ:  cpu time      0.9624: real time      0.9630
    EDDIAG:  cpu time      0.6865: real time      0.6867
  RMM-DIIS:  cpu time      3.2400: real time      3.2418
    ORTHCH:  cpu time      0.1376: real time      0.1376
       DOS:  cpu time      0.0008: real time      0.0008
    CHARGE:  cpu time      0.2712: real time      0.2720
    MIXING:  cpu time      0.0068: real time      0.0068
    --------------------------------------------
      LOOP:  cpu time      5.3638: real time      5.3672

 eigenvalue-minimisations  :  5375
 total energy-change (2. order) : 0.1415581E+02  (-0.2036745E+01)
 number of electron    1168.0000014 magnetization      30.2356403
 augmentation part       29.2215602 magnetization       6.7523519

 Broyden mixing:
  rms(total) = 0.71045E+01    rms(broyden)= 0.71038E+01
  rms(prec ) = 0.74097E+01
  weight for this iteration     100.00

 eigenvalues of (default mixing * dielectric matrix)
  average eigenvalue GAMMA=   0.2932
  1.3837  0.8413  0.8413  0.3479  0.3479  0.3694  0.3694  0.5508  0.5508  0.3743
  0.3743  0.2151  0.1764  0.1764  0.3065  0.3065  0.1078  0.1634  0.1634  0.2798
  0.2798  0.3560  0.3560  0.3233  0.3233  0.0367  0.1810  0.1810  0.2375  0.2375
  0.2041  0.2041  0.0543  0.0610  0.1275  0.1275  0.1699  0.1562  0.1562  0.1069
  0.0907  0.0964

 Free energy of the ion-electron system (eV)
  ---------------------------------------------------
  alpha Z        PSCENC =      2397.92104513
  Ewald energy   TEWEN  =    142375.48984807
  -Hartree energ DENC   =   -224945.91526751
  -exchange      EXHF   =         0.00000000
  -V(xc)+E(xc)   XCENC  =      3615.88334522
  PAW double counting   =     98241.14644772   -97306.32741222
  entropy T*S    EENTRO =        -0.07519691
  eigenvalues    EBANDS =    -12870.43991507
  atomic energy  EATOM  =     87776.77885653
  Solvation  Ediel_sol  =         0.00000000
  ---------------------------------------------------
  free energy    TOTEN  =      -715.53824904 eV

  energy without entropy =     -715.46305214  energy(sigma->0) =     -715.50065059


--------------------------------------------------------------------------------------------------------




--------------------------------------- Iteration      2(  59)  ---------------------------------------


    POTLOK:  cpu time      0.0578: real time      0.0578
    SETDIJ:  cpu time      0.9718: real time      0.9721
    EDDIAG:  cpu time      0.6876: real time      0.6876
  RMM-DIIS:  cpu time      3.2232: real time      3.2243
    ORTHCH:  cpu time      0.1365: real time      0.1371
       DOS:  cpu time      0.0010: real time      0.0010
    CHARGE:  cpu time      0.2659: real time      0.2659
    MIXING:  cpu time      0.0069: real time      0.0069
    --------------------------------------------
      LOOP:  cpu time      5.3508: real time      5.3528

 eigenvalue-minimisations  :  5350
 total energy-change (2. order) : 0.1060842E+02  (-0.1793791E+01)
 number of electron    1168.0000014 magnetization      30.4045259
 augmentation part       29.7309225 magnetization       5.0390617

 Broyden mixing:
  rms(total) = 0.72767E+01    rms(broyden)= 0.72762E+01
  rms(prec ) = 0.75825E+01
  weight for this iteration     100.00

 eigenvalues of (default mixing * dielectric matrix)
  average eigenvalue GAMMA=   0.2933
  1.3993  0.8879  0.8879  0.5385  0.5385  0.3752  0.3752  0.3508  0.3508  0.3775
  0.3775  0.3175  0.3175  0.2150  0.1753  0.1753  0.3621  0.3621  0.2844  0.2844
  0.3292  0.3292  0.1067  0.1594  0.1594  0.0364  0.2358  0.2358  0.2061  0.2061
  0.1724  0.1724  0.0541  0.0600  0.1454  0.1454  0.0891  0.0993  0.0993  0.1767
  0.1458  0.1458  0.1478

 Free energy of the ion-electron system (eV)
  ---------------------------------------------------
  alpha Z        PSCENC =      2397.92104513
  Ewald energy   TEWEN  =    142375.48984807
  -Hartree energ DENC   =   -224989.73195246
  -exchange      EXHF   =         0.00000000
  -V(xc)+E(xc)   XCENC  =      3621.32728186
  PAW double counting   =     98325.15932075   -97381.82896853
  entropy T*S    EENTRO =        -0.08657719
  eigenvalues    EBANDS =    -12829.95867972
  atomic energy  EATOM  =     87776.77885653
  Solvation  Ediel_sol  =         0.00000000
  ---------------------------------------------------
  free energy    TOTEN  =      -704.92982555 eV

  energy without entropy =     -704.84324836  energy(sigma->0) =     -704.88653695


--------------------------------------------------------------------------------------------------------




--------------------------------------- Iteration      2(  60)  ---------------------------------------


    POTLOK:  cpu time      0.0580: real time      0.0580
    SETDIJ:  cpu time      0.9636: real time      0.9639
    EDDIAG:  cpu time      0.6903: real time      0.6905
  RMM-DIIS:  cpu time      3.2082: real time      3.2106
    ORTHCH:  cpu time      0.1378: real time      0.1378
       DOS:  cpu time      0.0007: real time      0.0007
    CHARGE:  cpu time      0.2678: real time      0.2678
    MIXING:  cpu time      0.0072: real time      0.0072
    --------------------------------------------
      LOOP:  cpu time      5.3336: real time      5.3365

 eigenvalue-minimisations  :  5350
 total energy-change (2. order) : 0.2042093E+01  (-0.2358656E+01)
 number of electron    1168.0000014 magnetization      30.5840310
 augmentation part       29.8158781 magnetization       5.9736894

 Broyden mixing:
  rms(total) = 0.73134E+01    rms(broyden)= 0.73133E+01
  rms(prec ) = 0.76258E+01
  weight for this iteration     100.00

 eigenvalues of (default mixing * dielectric matrix)
  average eigenvalue GAMMA=   0.2990
  1.3951  0.9190  0.9190  0.3444  0.3444  0.3847  0.3847  0.4219  0.4219  0.5177
  0.5177  0.3474  0.3474  0.2165  0.1725  0.1725  0.3629  0.3629  0.3077  0.3077
  0.1081  0.1602  0.1602  0.3294  0.3294  0.0354  0.2520  0.2520  0.2433  0.2433
  0.1580  0.1580  0.0539  0.0596  0.1928  0.1928  0.0899  0.0998  0.0998  0.1706
  0.1706  0.1391  0.1391  0.1517

 Free energy of the ion-electron system (eV)
  ---------------------------------------------------
  alpha Z        PSCENC =      2397.92104513
  Ewald energy   TEWEN  =    142375.48984807
  -Hartree energ DENC   =   -224976.21858312
  -exchange      EXHF   =         0.00000000
  -V(xc)+E(xc)   XCENC  =      3624.43930309
  PAW double counting   =     98350.17816358   -97404.44887634
  entropy T*S    EENTRO =        -0.10883175
  eigenvalues    EBANDS =    -12846.91865783
  atomic energy  EATOM  =     87776.77885653
  Solvation  Ediel_sol  =         0.00000000
  ---------------------------------------------------
  free energy    TOTEN  =      -702.88773264 eV

  energy without entropy =     -702.77890089  energy(sigma->0) =     -702.83331676


--------------------------------------------------------------------------------------------------------




--------------------------------------- Iteration      2(  61)  ---------------------------------------


    POTLOK:  cpu time      0.0586: real time      0.0586
    SETDIJ:  cpu time      0.9655: real time      0.9662
    EDDIAG:  cpu time      0.6887: real time      0.6888
  RMM-DIIS:  cpu time      3.2403: real time      3.2423
    ORTHCH:  cpu time      0.1379: real time      0.1379
       DOS:  cpu time      0.0009: real time      0.0009
    CHARGE:  cpu time      0.2664: real time      0.2674
    MIXING:  cpu time      0.0091: real time      0.0092
    --------------------------------------------
      LOOP:  cpu time      5.3674: real time      5.3713

 eigenvalue-minimisations  :  5359
 total energy-change (2. order) : 0.2988292E+01  (-0.4639322E+01)
 number of electron    1168.0000014 magnetization      28.3048915
 augmentation part       29.9661244 magnetization       2.5286683

 Broyden mixing:
  rms(total) = 0.73690E+01    rms(broyden)= 0.73688E+01
  rms(prec ) = 0.76498E+01
  weight for this iteration     100.00

 eigenvalues of (default mixing * dielectric matrix)
  average eigenvalue GAMMA=   0.3014
  1.2563  0.8477  0.8477  0.5141  0.5141  0.3232  0.3232  0.4857  0.4857  0.3126
  0.3126  0.3825  0.3825  0.3123  0.3123  0.2045  0.1476  0.1476  0.3049  0.3049
  0.3267  0.3267  0.0356  0.1231  0.1231  0.2540  0.2540  0.0598  0.0598  0.1781
  0.1781  0.2304  0.2140  0.0893  0.1355  0.1355  0.1832  0.1338  0.1474  0.1474

 Free energy of the ion-electron system (eV)
  ---------------------------------------------------
  alpha Z        PSCENC =      2397.92104513
  Ewald energy   TEWEN  =    142375.48984807
  -Hartree energ DENC   =   -224945.76344405
  -exchange      EXHF   =         0.00000000
  -V(xc)+E(xc)   XCENC  =      3629.58291125
  PAW double counting   =     98396.40862831   -97446.22560222
  entropy T*S    EENTRO =        -0.10147627
  eigenvalues    EBANDS =    -12883.99020705
  atomic energy  EATOM  =     87776.77885653
  Solvation  Ediel_sol  =         0.00000000
  ---------------------------------------------------
  free energy    TOTEN  =      -699.89944029 eV

  energy without entropy =     -699.79796403  energy(sigma->0) =     -699.84870216


--------------------------------------------------------------------------------------------------------




--------------------------------------- Iteration      2(  62)  ---------------------------------------


    POTLOK:  cpu time      0.0575: real time      0.0575
    SETDIJ:  cpu time      0.9641: real time      0.9645
    EDDIAG:  cpu time      0.6863: real time      0.6864
  RMM-DIIS:  cpu time      3.2843: real time      3.2859
    ORTHCH:  cpu time      0.1377: real time      0.1377
       DOS:  cpu time      0.0009: real time      0.0009
    CHARGE:  cpu time      0.2707: real time      0.2708
    MIXING:  cpu time      0.0066: real time      0.0066
    --------------------------------------------
      LOOP:  cpu time      5.4081: real time      5.4102

 eigenvalue-minimisations  :  5411
 total energy-change (2. order) :-0.1564819E+03  (-0.1779337E+02)
 number of electron    1168.0000014 magnetization      28.9885944
 augmentation part       28.0575497 magnetization       4.0575019

 Broyden mixing:
  rms(total) = 0.72596E+01    rms(broyden)= 0.72580E+01
  rms(prec ) = 0.77126E+01
  weight for this iteration     100.00

 eigenvalues of (default mixing * dielectric matrix)
  average eigenvalue GAMMA=   0.3071
  1.5466  0.8045  0.8045  0.3427  0.5070  0.5070  0.2622  0.3057  0.3057  0.4772
  0.4772  0.2116  0.1679  0.1679  0.3725  0.3725  0.3015  0.3015  0.4290  0.3079
  0.3079  0.3155  0.3155  0.1393  0.1393  0.0356  0.0126  0.2500  0.2500  0.1766
  0.1766  0.2353  0.2172  0.0780  0.0901  0.1853  0.1419  0.1419  0.1217  0.1478
  0.1426

 Free energy of the ion-electron system (eV)
  ---------------------------------------------------
  alpha Z        PSCENC =      2397.92104513
  Ewald energy   TEWEN  =    142375.48984807
  -Hartree energ DENC   =   -225187.21489390
  -exchange      EXHF   =         0.00000000
  -V(xc)+E(xc)   XCENC  =      3564.77086697
  PAW double counting   =     97936.54382946   -97078.20009480
  entropy T*S    EENTRO =        -0.06690882
  eigenvalues    EBANDS =    -12642.40384394
  atomic energy  EATOM  =     87776.77885653
  Solvation  Ediel_sol  =         0.00000000
  ---------------------------------------------------
  free energy    TOTEN  =      -856.38129530 eV

  energy without entropy =     -856.31438648  energy(sigma->0) =     -856.34784089


--------------------------------------------------------------------------------------------------------




--------------------------------------- Iteration      2(  63)  ---------------------------------------


    POTLOK:  cpu time      0.0579: real time      0.0579
    SETDIJ:  cpu time      0.9673: real time      0.9680
    EDDIAG:  cpu time      0.6856: real time      0.6861
  RMM-DIIS:  cpu time      3.2762: real time      3.2779
    ORTHCH:  cpu time      0.1378: real time      0.1378
       DOS:  cpu time      0.0007: real time      0.0007
    CHARGE:  cpu time      0.2729: real time      0.2729
    MIXING:  cpu time      0.0070: real time      0.0070
    --------------------------------------------
      LOOP:  cpu time      5.4054: real time      5.4083

 eigenvalue-minimisations  :  5384
 total energy-change (2. order) : 0.6921338E+02  (-0.9390469E+01)
 number of electron    1168.0000014 magnetization      29.1054273
 augmentation part       28.2865210 magnetization       3.5694144

 Broyden mixing:
  rms(total) = 0.66292E+01    rms(broyden)= 0.66278E+01
  rms(prec ) = 0.68860E+01
  weight for this iteration     100.00

 eigenvalues of (default mixing * dielectric matrix)
  average eigenvalue GAMMA=   0.3145
  1.7369  0.8040  0.8040  0.3611  0.5240  0.5240  0.3121  0.3121  0.4766  0.4766
  0.5096  0.2110  0.2110  0.1875  0.1875  0.3669  0.3669  0.3085  0.3085  0.3129
  0.3129  0.0354  0.1359  0.1359  0.3200  0.3200  0.0109  0.2930  0.2465  0.2465
  0.1805  0.1805  0.0782  0.0898  0.2244  0.2001  0.2001  0.1159  0.1442  0.1442
  0.1467  0.1467

 Free energy of the ion-electron system (eV)
  ---------------------------------------------------
  alpha Z        PSCENC =      2397.92104513
  Ewald energy   TEWEN  =    142375.48984807
  -Hartree energ DENC   =   -225055.05837795
  -exchange      EXHF   =         0.00000000
  -V(xc)+E(xc)   XCENC  =      3583.98969783
  PAW double counting   =     98322.79693007   -97409.98371706
  entropy T*S    EENTRO =        -0.05158011
  eigenvalues    EBANDS =    -12779.05061356
  atomic energy  EATOM  =     87776.77885653
  Solvation  Ediel_sol  =         0.00000000
  ---------------------------------------------------
  free energy    TOTEN  =      -787.16791105 eV

  energy without entropy =     -787.11633094  energy(sigma->0) =     -787.14212099


--------------------------------------------------------------------------------------------------------




--------------------------------------- Iteration      2(  64)  ---------------------------------------


    POTLOK:  cpu time      0.0595: real time      0.0595
    SETDIJ:  cpu time      0.9755: real time      0.9767
    EDDIAG:  cpu time      0.6864: real time      0.6866
  RMM-DIIS:  cpu time      3.2348: real time      3.2361
    ORTHCH:  cpu time      0.1397: real time      0.1403
       DOS:  cpu time      0.0009: real time      0.0009
    CHARGE:  cpu time      0.2736: real time      0.2736
    MIXING:  cpu time      0.0071: real time      0.0071
    --------------------------------------------
      LOOP:  cpu time      5.3775: real time      5.3809

 eigenvalue-minimisations  :  5383
 total energy-change (2. order) : 0.2379129E+02  (-0.9270567E+01)
 number of electron    1168.0000014 magnetization      29.1372379
 augmentation part       29.1556561 magnetization       0.9469143

 Broyden mixing:
  rms(total) = 0.66856E+01    rms(broyden)= 0.66848E+01
  rms(prec ) = 0.69762E+01
  weight for this iteration     100.00

 eigenvalues of (default mixing * dielectric matrix)
  average eigenvalue GAMMA=   0.3152
  1.7442  0.8168  0.8168  0.3624  0.5169  0.5169  0.5096  0.5096  0.3203  0.3203
  0.3606  0.3606  0.2121  0.2121  0.1721  0.1721  0.4471  0.3457  0.3457  0.3761
  0.3761  0.0354  0.1249  0.1249  0.3017  0.3017  0.0224  0.2597  0.2597  0.2301
  0.2301  0.1748  0.1748  0.0689  0.2341  0.2253  0.0873  0.1334  0.1334  0.1169
  0.1896  0.1558  0.1558

 Free energy of the ion-electron system (eV)
  ---------------------------------------------------
  alpha Z        PSCENC =      2397.92104513
  Ewald energy   TEWEN  =    142375.48984807
  -Hartree energ DENC   =   -225044.51891654
  -exchange      EXHF   =         0.00000000
  -V(xc)+E(xc)   XCENC  =      3592.44693843
  PAW double counting   =     98549.50882116   -97614.74661784
  entropy T*S    EENTRO =        -0.07525709
  eigenvalues    EBANDS =    -12796.18133489
  atomic energy  EATOM  =     87776.77885653
  Solvation  Ediel_sol  =         0.00000000
  ---------------------------------------------------
  free energy    TOTEN  =      -763.37661704 eV

  energy without entropy =     -763.30135995  energy(sigma->0) =     -763.33898849


--------------------------------------------------------------------------------------------------------




--------------------------------------- Iteration      2(  65)  ---------------------------------------


    POTLOK:  cpu time      0.0608: real time      0.0608
    SETDIJ:  cpu time      0.9752: real time      0.9756
    EDDIAG:  cpu time      0.6866: real time      0.6868
  RMM-DIIS:  cpu time      3.2207: real time      3.2225
    ORTHCH:  cpu time      0.1409: real time      0.1409
       DOS:  cpu time      0.0009: real time      0.0009
    CHARGE:  cpu time      0.2690: real time      0.2691
    MIXING:  cpu time      0.0072: real time      0.0072
    --------------------------------------------
      LOOP:  cpu time      5.3613: real time      5.3636

 eigenvalue-minimisations  :  5369
 total energy-change (2. order) : 0.8836020E+01  (-0.5459945E+01)
 number of electron    1168.0000014 magnetization      29.1467353
 augmentation part       28.1495137 magnetization       1.1155454

 Broyden mixing:
  rms(total) = 0.65429E+01    rms(broyden)= 0.65423E+01
  rms(prec ) = 0.67651E+01
  weight for this iteration     100.00

 eigenvalues of (default mixing * dielectric matrix)
  average eigenvalue GAMMA=   0.3221
  1.7647  0.8716  0.8716  0.3598  0.6058  0.6058  0.4109  0.4109  0.3132  0.3132
  0.4857  0.4857  0.2185  0.2185  0.1538  0.1538  0.4746  0.3094  0.3094  0.4045
  0.4045  0.1295  0.1295  0.0345  0.3034  0.3034  0.2391  0.2391  0.2770  0.2770
  0.0366  0.1783  0.1783  0.0625  0.2488  0.0875  0.2259  0.1140  0.1362  0.1362
  0.1889  0.1889  0.1552  0.1552

 Free energy of the ion-electron system (eV)
  ---------------------------------------------------
  alpha Z        PSCENC =      2397.92104513
  Ewald energy   TEWEN  =    142375.48984807
  -Hartree energ DENC   =   -225002.27323006
  -exchange      EXHF   =         0.00000000
  -V(xc)+E(xc)   XCENC  =      3597.33500367
  PAW double counting   =     98639.86777993   -97698.91155753
  entropy T*S    EENTRO =        -0.05844565
  eigenvalues    EBANDS =    -12840.68989668
  atomic energy  EATOM  =     87776.77885653
  Solvation  Ediel_sol  =         0.00000000
  ---------------------------------------------------
  free energy    TOTEN  =      -754.54059659 eV

  energy without entropy =     -754.48215094  energy(sigma->0) =     -754.51137377


--------------------------------------------------------------------------------------------------------




--------------------------------------- Iteration      2(  66)  ---------------------------------------


    POTLOK:  cpu time      0.0582: real time      0.0582
    SETDIJ:  cpu time      0.9637: real time      0.9644
    EDDIAG:  cpu time      0.6865: real time      0.6867
  RMM-DIIS:  cpu time      3.2436: real time      3.2454
    ORTHCH:  cpu time      0.1411: real time      0.1411
       DOS:  cpu time      0.0007: real time      0.0007
    CHARGE:  cpu time      0.2711: real time      0.2718
    MIXING:  cpu time      0.0080: real time      0.0080
    --------------------------------------------
      LOOP:  cpu time      5.3729: real time      5.3764

 eigenvalue-minimisations  :  5375
 total energy-change (2. order) :-0.7085574E+01  (-0.3867399E+01)
 number of electron    1168.0000014 magnetization      28.5493036
 augmentation part       28.2804455 magnetization       2.0100962

 Broyden mixing:
  rms(total) = 0.65367E+01    rms(broyden)= 0.65364E+01
  rms(prec ) = 0.67723E+01
  weight for this iteration     100.00

 eigenvalues of (default mixing * dielectric matrix)
  average eigenvalue GAMMA=   0.3329
  1.5445  0.7640  0.7640  0.6373  0.6373  0.5777  0.5777  0.6651  0.2774  0.2429
  0.2311  0.1811  0.1811  0.2714  0.2714  0.1513  0.1513  0.0041  0.3725  0.3725
  0.3741  0.3581  0.3581  0.1909  0.1909  0.2725  0.2725  0.2570  0.2570  0.2775
  0.0766  0.1350  0.1350  0.2259  0.2259  0.1922  0.1922  0.1442  0.1523  0.1523

 Free energy of the ion-electron system (eV)
  ---------------------------------------------------
  alpha Z        PSCENC =      2397.92104513
  Ewald energy   TEWEN  =    142375.48984807
  -Hartree energ DENC   =   -224969.57717841
  -exchange      EXHF   =         0.00000000
  -V(xc)+E(xc)   XCENC  =      3597.31435415
  PAW double counting   =     98652.89704020   -97718.95519595
  entropy T*S    EENTRO =        -0.07178139
  eigenvalues    EBANDS =    -12873.42315877
  atomic energy  EATOM  =     87776.77885653
  Solvation  Ediel_sol  =         0.00000000
  ---------------------------------------------------
  free energy    TOTEN  =      -761.62617044 eV

  energy without entropy =     -761.55438905  energy(sigma->0) =     -761.59027974


--------------------------------------------------------------------------------------------------------




--------------------------------------- Iteration      2(  67)  ---------------------------------------


    POTLOK:  cpu time      0.0586: real time      0.0585
    SETDIJ:  cpu time      0.9709: real time      0.9713
    EDDIAG:  cpu time      0.6868: real time      0.6868
  RMM-DIIS:  cpu time      3.2456: real time      3.2471
    ORTHCH:  cpu time      0.1378: real time      0.1379
       DOS:  cpu time      0.0009: real time      0.0009
    CHARGE:  cpu time      0.2671: real time      0.2671
    MIXING:  cpu time      0.0070: real time      0.0070
    --------------------------------------------
      LOOP:  cpu time      5.3746: real time      5.3765

 eigenvalue-minimisations  :  5370
 total energy-change (2. order) :-0.7391883E+02  (-0.6294085E+01)
 number of electron    1168.0000014 magnetization      28.3396391
 augmentation part       26.5833914 magnetization       4.0869842

 Broyden mixing:
  rms(total) = 0.62288E+01    rms(broyden)= 0.62271E+01
  rms(prec ) = 0.65099E+01
  weight for this iteration     100.00

 eigenvalues of (default mixing * dielectric matrix)
  average eigenvalue GAMMA=   0.3298
  1.5391  0.7713  0.7355  0.7355  0.6391  0.6391  0.5692  0.5692  0.3021  0.2284
  0.1983  0.1947  0.1947  0.2758  0.2758  0.1611  0.1611  0.3689  0.3689  0.0062
  0.3656  0.3509  0.3509  0.1806  0.1806  0.2618  0.2618  0.2698  0.2698  0.2766
  0.0786  0.1409  0.1409  0.2405  0.2326  0.1998  0.1998  0.1369  0.1484  0.1484
  0.1522

 Free energy of the ion-electron system (eV)
  ---------------------------------------------------
  alpha Z        PSCENC =      2397.92104513
  Ewald energy   TEWEN  =    142375.48984807
  -Hartree energ DENC   =   -225047.17154271
  -exchange      EXHF   =         0.00000000
  -V(xc)+E(xc)   XCENC  =      3579.92477092
  PAW double counting   =     98352.34878238   -97470.56367636
  entropy T*S    EENTRO =        -0.12413342
  eigenvalues    EBANDS =    -12800.14895561
  atomic energy  EATOM  =     87776.77885653
  Solvation  Ediel_sol  =         0.00000000
  ---------------------------------------------------
  free energy    TOTEN  =      -835.54500507 eV

  energy without entropy =     -835.42087165  energy(sigma->0) =     -835.48293836


--------------------------------------------------------------------------------------------------------




--------------------------------------- Iteration      2(  68)  ---------------------------------------


    POTLOK:  cpu time      0.0591: real time      0.0591
    SETDIJ:  cpu time      0.9636: real time      0.9643
    EDDIAG:  cpu time      0.6866: real time      0.6869
  RMM-DIIS:  cpu time      3.2703: real time      3.2723
    ORTHCH:  cpu time      0.1375: real time      0.1375
       DOS:  cpu time      0.0010: real time      0.0010
    CHARGE:  cpu time      0.2680: real time      0.2680
    MIXING:  cpu time      0.0074: real time      0.0074
    --------------------------------------------
      LOOP:  cpu time      5.3934: real time      5.3966

 eigenvalue-minimisations  :  5351
 total energy-change (2. order) :-0.2069968E+01  (-0.3961252E+01)
 number of electron    1168.0000014 magnetization      28.3179250
 augmentation part       26.6666348 magnetization       2.7852291

 Broyden mixing:
  rms(total) = 0.57189E+01    rms(broyden)= 0.57184E+01
  rms(prec ) = 0.59533E+01
  weight for this iteration     100.00

 eigenvalues of (default mixing * dielectric matrix)
  average eigenvalue GAMMA=   0.3340
  1.5402  0.7541  0.7541  0.7349  0.6113  0.6113  0.6133  0.6133  0.2976  0.2319
  0.2134  0.1817  0.1817  0.2701  0.2701  0.4181  0.3790  0.3790  0.1713  0.1713
  0.0064  0.3217  0.3217  0.1884  0.1884  0.3344  0.3344  0.2606  0.2606  0.2762
  0.2762  0.0771  0.1393  0.1393  0.2323  0.2235  0.2235  0.2052  0.1385  0.1707
  0.1564  0.1564

 Free energy of the ion-electron system (eV)
  ---------------------------------------------------
  alpha Z        PSCENC =      2397.92104513
  Ewald energy   TEWEN  =    142375.48984807
  -Hartree energ DENC   =   -224977.63964850
  -exchange      EXHF   =         0.00000000
  -V(xc)+E(xc)   XCENC  =      3579.17685040
  PAW double counting   =     98362.88410273   -97485.47715553
  entropy T*S    EENTRO =        -0.06247048
  eigenvalues    EBANDS =    -12866.68640107
  atomic energy  EATOM  =     87776.77885653
  Solvation  Ediel_sol  =         0.00000000
  ---------------------------------------------------
  free energy    TOTEN  =      -837.61497272 eV

  energy without entropy =     -837.55250225  energy(sigma->0) =     -837.58373749


--------------------------------------------------------------------------------------------------------




--------------------------------------- Iteration      2(  69)  ---------------------------------------


    POTLOK:  cpu time      0.0579: real time      0.0579
    SETDIJ:  cpu time      0.9645: real time      0.9651
    EDDIAG:  cpu time      0.6852: real time      0.6854
  RMM-DIIS:  cpu time      3.2473: real time      3.2499
    ORTHCH:  cpu time      0.1370: real time      0.1370
       DOS:  cpu time      0.0011: real time      0.0011
    CHARGE:  cpu time      0.2659: real time      0.2668
    MIXING:  cpu time      0.0071: real time      0.0071
    --------------------------------------------
      LOOP:  cpu time      5.3660: real time      5.3703

 eigenvalue-minimisations  :  5345
 total energy-change (2. order) : 0.5777666E+01  (-0.2273231E+01)
 number of electron    1168.0000014 magnetization      28.1200001
 augmentation part       26.9266863 magnetization       3.2509572

 Broyden mixing:
  rms(total) = 0.56014E+01    rms(broyden)= 0.56011E+01
  rms(prec ) = 0.57710E+01
  weight for this iteration     100.00

 eigenvalues of (default mixing * dielectric matrix)
  average eigenvalue GAMMA=   0.3435
  1.5333  0.8329  0.8329  0.6578  0.6578  0.6270  0.6270  0.6315  0.3054  0.5068
  0.5068  0.2215  0.1995  0.1941  0.1941  0.2671  0.2671  0.1616  0.1616  0.0058
  0.3976  0.3569  0.3569  0.1891  0.1891  0.3402  0.3250  0.3250  0.2593  0.2593
  0.2677  0.2677  0.0775  0.1381  0.1381  0.2228  0.2228  0.2296  0.2014  0.1717
  0.1405  0.1519  0.1519

 Free energy of the ion-electron system (eV)
  ---------------------------------------------------
  alpha Z        PSCENC =      2397.92104513
  Ewald energy   TEWEN  =    142375.48984807
  -Hartree energ DENC   =   -224931.51127353
  -exchange      EXHF   =         0.00000000
  -V(xc)+E(xc)   XCENC  =      3581.94153683
  PAW double counting   =     98430.12751718   -97551.08244659
  entropy T*S    EENTRO =        -0.05555898
  eigenvalues    EBANDS =    -12911.44683163
  atomic energy  EATOM  =     87776.77885653
  Solvation  Ediel_sol  =         0.00000000
  ---------------------------------------------------
  free energy    TOTEN  =      -831.83730698 eV

  energy without entropy =     -831.78174800  energy(sigma->0) =     -831.80952749


--------------------------------------------------------------------------------------------------------




--------------------------------------- Iteration      2(  70)  ---------------------------------------


    POTLOK:  cpu time      0.0580: real time      0.0580
    SETDIJ:  cpu time      0.9626: real time      0.9630
    EDDIAG:  cpu time      0.6872: real time      0.6873
  RMM-DIIS:  cpu time      3.2425: real time      3.2446
    ORTHCH:  cpu time      0.1380: real time      0.1380
       DOS:  cpu time      0.0008: real time      0.0008
    CHARGE:  cpu time      0.2682: real time      0.2683
    MIXING:  cpu time      0.0070: real time      0.0070
    --------------------------------------------
      LOOP:  cpu time      5.3643: real time      5.3669

 eigenvalue-minimisations  :  5360
 total energy-change (2. order) : 0.3682471E+01  (-0.1439867E+01)
 number of electron    1168.0000014 magnetization      27.7819434
 augmentation part       27.2100586 magnetization       2.8938393

 Broyden mixing:
  rms(total) = 0.57405E+01    rms(broyden)= 0.57402E+01
  rms(prec ) = 0.59326E+01
  weight for this iteration     100.00

 eigenvalues of (default mixing * dielectric matrix)
  average eigenvalue GAMMA=   0.3526
  1.5598  0.7421  0.7421  0.7924  0.7324  0.7324  0.7029  0.7029  0.3045  0.5327
  0.5327  0.2135  0.2135  0.1945  0.1945  0.2689  0.2689  0.1637  0.1637  0.0058
  0.3711  0.3711  0.4017  0.3710  0.3710  0.1865  0.1865  0.2591  0.2591  0.2944
  0.2944  0.2681  0.2681  0.0775  0.1382  0.1382  0.2326  0.2191  0.2191  0.2086
  0.1395  0.1717  0.1527  0.1527

 Free energy of the ion-electron system (eV)
  ---------------------------------------------------
  alpha Z        PSCENC =      2397.92104513
  Ewald energy   TEWEN  =    142375.48984807
  -Hartree energ DENC   =   -224943.22030530
  -exchange      EXHF   =         0.00000000
  -V(xc)+E(xc)   XCENC  =      3585.42419940
  PAW double counting   =     98561.53085963   -97680.67604625
  entropy T*S    EENTRO =        -0.08096275
  eigenvalues    EBANDS =    -12901.32233005
  atomic energy  EATOM  =     87776.77885653
  Solvation  Ediel_sol  =         0.00000000
  ---------------------------------------------------
  free energy    TOTEN  =      -828.15483559 eV

  energy without entropy =     -828.07387284  energy(sigma->0) =     -828.11435421


--------------------------------------------------------------------------------------------------------




--------------------------------------- Iteration      2(  71)  ---------------------------------------


    POTLOK:  cpu time      0.0584: real time      0.0584
    SETDIJ:  cpu time      0.9723: real time      0.9730
    EDDIAG:  cpu time      0.6855: real time      0.6860
  RMM-DIIS:  cpu time      3.2788: real time      3.2805
    ORTHCH:  cpu time      0.1366: real time      0.1366
       DOS:  cpu time      0.0008: real time      0.0008
    CHARGE:  cpu time      0.2669: real time      0.2670
    MIXING:  cpu time      0.0084: real time      0.0084
    --------------------------------------------
      LOOP:  cpu time      5.4079: real time      5.4107

 eigenvalue-minimisations  :  5366
 total energy-change (2. order) : 0.3333540E+01  (-0.1120012E+01)
 number of electron    1168.0000014 magnetization      27.6968296
 augmentation part       27.3484774 magnetization       2.2886733

 Broyden mixing:
  rms(total) = 0.59179E+01    rms(broyden)= 0.59177E+01
  rms(prec ) = 0.60952E+01
  weight for this iteration     100.00

 eigenvalues of (default mixing * dielectric matrix)
  average eigenvalue GAMMA=   0.3726
  1.5199  0.8627  0.7158  0.7158  0.7506  0.7506  0.7597  0.3271  0.2472  0.5677
  0.5677  0.2969  0.2969  0.0790  0.4359  0.4359  0.0464  0.0464  0.4112  0.4112
  0.2031  0.2031  0.3521  0.3521  0.3626  0.2902  0.2902  0.2552  0.2552  0.2308
  0.2308  0.0993  0.1582  0.1582  0.1414  0.2405  0.2405  0.1821  0.1821  0.2303

 Free energy of the ion-electron system (eV)
  ---------------------------------------------------
  alpha Z        PSCENC =      2397.92104513
  Ewald energy   TEWEN  =    142375.48984807
  -Hartree energ DENC   =   -224935.30491492
  -exchange      EXHF   =         0.00000000
  -V(xc)+E(xc)   XCENC  =      3590.08660024
  PAW double counting   =     98661.19724724   -97780.45367488
  entropy T*S    EENTRO =        -0.08440646
  eigenvalues    EBANDS =    -12910.45189632
  atomic energy  EATOM  =     87776.77885653
  Solvation  Ediel_sol  =         0.00000000
  ---------------------------------------------------
  free energy    TOTEN  =      -824.82129538 eV

  energy without entropy =     -824.73688892  energy(sigma->0) =     -824.77909215


--------------------------------------------------------------------------------------------------------




--------------------------------------- Iteration      2(  72)  ---------------------------------------


    POTLOK:  cpu time      0.0575: real time      0.0581
    SETDIJ:  cpu time      0.9722: real time      0.9724
    EDDIAG:  cpu time      0.6869: real time      0.6871
  RMM-DIIS:  cpu time      3.2793: real time      3.2811
    ORTHCH:  cpu time      0.1383: real time      0.1389
       DOS:  cpu time      0.0010: real time      0.0010
    CHARGE:  cpu time      0.2695: real time      0.2695
    MIXING:  cpu time      0.0073: real time      0.0073
    --------------------------------------------
      LOOP:  cpu time      5.4120: real time      5.4153

 eigenvalue-minimisations  :  5397
 total energy-change (2. order) :-0.1380357E+03  (-0.8961944E+01)
 number of electron    1168.0000014 magnetization      28.0318717
 augmentation part       23.8358748 magnetization       3.8984891

 Broyden mixing:
  rms(total) = 0.62375E+01    rms(broyden)= 0.62354E+01
  rms(prec ) = 0.67932E+01
  weight for this iteration     100.00

 eigenvalues of (default mixing * dielectric matrix)
  average eigenvalue GAMMA=   0.3786
  1.6187  0.7092  0.7092  0.8502  0.7484  0.7484  0.7699  0.3270  0.2481  0.5636
  0.5636  0.2950  0.2950  0.5463  0.0891  0.4442  0.4442  0.0404  0.0404  0.4108
  0.4108  0.2038  0.2038  0.3482  0.3482  0.3602  0.2981  0.2981  0.2398  0.2398
  0.2546  0.2546  0.0957  0.1550  0.1550  0.1419  0.1795  0.1795  0.2308  0.2308
  0.2331

 Free energy of the ion-electron system (eV)
  ---------------------------------------------------
  alpha Z        PSCENC =      2397.92104513
  Ewald energy   TEWEN  =    142375.48984807
  -Hartree energ DENC   =   -225127.48105274
  -exchange      EXHF   =         0.00000000
  -V(xc)+E(xc)   XCENC  =      3551.82652948
  PAW double counting   =     98117.77096556   -97323.99668498
  entropy T*S    EENTRO =        -0.09621636
  eigenvalues    EBANDS =    -12731.07031920
  atomic energy  EATOM  =     87776.77885653
  Solvation  Ediel_sol  =         0.00000000
  ---------------------------------------------------
  free energy    TOTEN  =      -962.85702850 eV

  energy without entropy =     -962.76081214  energy(sigma->0) =     -962.80892032


--------------------------------------------------------------------------------------------------------




--------------------------------------- Iteration      2(  73)  ---------------------------------------


    POTLOK:  cpu time      0.0582: real time      0.0582
    SETDIJ:  cpu time      0.9735: real time      0.9739
    EDDIAG:  cpu time      0.6902: real time      0.6903
  RMM-DIIS:  cpu time      3.2590: real time      3.2607
    ORTHCH:  cpu time      0.1376: real time      0.1376
       DOS:  cpu time      0.0006: real time      0.0006
    CHARGE:  cpu time      0.2681: real time      0.2681
    MIXING:  cpu time      0.0069: real time      0.0069
    --------------------------------------------
      LOOP:  cpu time      5.3941: real time      5.3963

 eigenvalue-minimisations  :  5380
 total energy-change (2. order) : 0.2065114E+02  (-0.3431464E+01)
 number of electron    1168.0000014 magnetization      28.2617669
 augmentation part       24.4652562 magnetization       4.9567178

 Broyden mixing:
  rms(total) = 0.57031E+01    rms(broyden)= 0.57014E+01
  rms(prec ) = 0.60689E+01
  weight for this iteration     100.00

 eigenvalues of (default mixing * dielectric matrix)
  average eigenvalue GAMMA=   0.3798
  1.6111  0.8702  0.8702  0.7124  0.7124  0.7379  0.7379  0.3278  0.2486  0.5633
  0.5633  0.5972  0.2950  0.2950  0.0885  0.4502  0.4502  0.0397  0.0397  0.4081
  0.4081  0.2026  0.2026  0.3370  0.3370  0.3730  0.2836  0.2836  0.2352  0.2352
  0.3115  0.3115  0.1008  0.1472  0.1472  0.1461  0.2397  0.2397  0.1808  0.1854
  0.2123  0.2123

 Free energy of the ion-electron system (eV)
  ---------------------------------------------------
  alpha Z        PSCENC =      2397.92104513
  Ewald energy   TEWEN  =    142375.48984807
  -Hartree energ DENC   =   -224913.39168736
  -exchange      EXHF   =         0.00000000
  -V(xc)+E(xc)   XCENC  =      3556.71025217
  PAW double counting   =     98349.53399687   -97555.04504469
  entropy T*S    EENTRO =        -0.05094149
  eigenvalues    EBANDS =    -12930.15221311
  atomic energy  EATOM  =     87776.77885653
  Solvation  Ediel_sol  =         0.00000000
  ---------------------------------------------------
  free energy    TOTEN  =      -942.20588787 eV

  energy without entropy =     -942.15494639  energy(sigma->0) =     -942.18041713


--------------------------------------------------------------------------------------------------------




--------------------------------------- Iteration      2(  74)  ---------------------------------------


    POTLOK:  cpu time      0.0587: real time      0.0587
    SETDIJ:  cpu time      0.9732: real time      0.9738
    EDDIAG:  cpu time      0.6888: real time      0.6895
  RMM-DIIS:  cpu time      3.2330: real time      3.2351
    ORTHCH:  cpu time      0.1378: real time      0.1378
       DOS:  cpu time      0.0008: real time      0.0008
    CHARGE:  cpu time      0.2661: real time      0.2664
    MIXING:  cpu time      0.0070: real time      0.0071
    --------------------------------------------
      LOOP:  cpu time      5.3653: real time      5.3692

 eigenvalue-minimisations  :  5350
 total energy-change (2. order) : 0.1071210E+02  (-0.1591447E+01)
 number of electron    1168.0000014 magnetization      28.6372674
 augmentation part       24.5073679 magnetization       4.3776364

 Broyden mixing:
  rms(total) = 0.50705E+01    rms(broyden)= 0.50692E+01
  rms(prec ) = 0.53123E+01
  weight for this iteration     100.00

 eigenvalues of (default mixing * dielectric matrix)
  average eigenvalue GAMMA=   0.3820
  1.6696  0.7272  0.7272  0.8470  0.8470  0.7470  0.7470  0.3268  0.2476  0.5607
  0.5607  0.2994  0.2994  0.5755  0.0869  0.4642  0.4642  0.0412  0.0412  0.1996
  0.1996  0.4011  0.4011  0.3471  0.3471  0.3763  0.3548  0.3548  0.3116  0.3116
  0.2276  0.2276  0.0978  0.2379  0.2379  0.1536  0.1536  0.1414  0.1796  0.1796
  0.2366  0.2366  0.2323

 Free energy of the ion-electron system (eV)
  ---------------------------------------------------
  alpha Z        PSCENC =      2397.92104513
  Ewald energy   TEWEN  =    142375.48984807
  -Hartree energ DENC   =   -224911.46065953
  -exchange      EXHF   =         0.00000000
  -V(xc)+E(xc)   XCENC  =      3560.13948893
  PAW double counting   =     98463.44491292   -97668.43529683
  entropy T*S    EENTRO =        -0.03519710
  eigenvalues    EBANDS =    -12925.33678170
  atomic energy  EATOM  =     87776.77885653
  Solvation  Ediel_sol  =         0.00000000
  ---------------------------------------------------
  free energy    TOTEN  =      -931.49378358 eV

  energy without entropy =     -931.45858648  energy(sigma->0) =     -931.47618503


--------------------------------------------------------------------------------------------------------




--------------------------------------- Iteration      2(  75)  ---------------------------------------


    POTLOK:  cpu time      0.0571: real time      0.0571
    SETDIJ:  cpu time      0.9716: real time      0.9720
    EDDIAG:  cpu time      0.6850: real time      0.6850
  RMM-DIIS:  cpu time      3.2505: real time      3.2520
    ORTHCH:  cpu time      0.1379: real time      0.1380
       DOS:  cpu time      0.0009: real time      0.0009
    CHARGE:  cpu time      0.2716: real time      0.2716
    MIXING:  cpu time      0.0070: real time      0.0070
    --------------------------------------------
      LOOP:  cpu time      5.3817: real time      5.3837

 eigenvalue-minimisations  :  5362
 total energy-change (2. order) : 0.8461217E+01  (-0.1210593E+01)
 number of electron    1168.0000014 magnetization      29.1043375
 augmentation part       24.8537763 magnetization       6.5346693

 Broyden mixing:
  rms(total) = 0.47607E+01    rms(broyden)= 0.47599E+01
  rms(prec ) = 0.49805E+01
  weight for this iteration     100.00

 eigenvalues of (default mixing * dielectric matrix)
  average eigenvalue GAMMA=   0.3883
  1.7342  0.7425  0.7425  0.8745  0.8745  0.7680  0.7680  0.3244  0.2482  0.5711
  0.5711  0.2907  0.2907  0.0866  0.5083  0.5083  0.0398  0.0398  0.4963  0.4337
  0.4337  0.2092  0.2092  0.4081  0.4081  0.3505  0.3505  0.3704  0.0972  0.2618
  0.2618  0.2330  0.2330  0.2985  0.2985  0.1551  0.1551  0.1404  0.1719  0.1910
  0.2245  0.2245  0.2440  0.2420

 Free energy of the ion-electron system (eV)
  ---------------------------------------------------
  alpha Z        PSCENC =      2397.92104513
  Ewald energy   TEWEN  =    142375.48984807
  -Hartree energ DENC   =   -224860.60363571
  -exchange      EXHF   =         0.00000000
  -V(xc)+E(xc)   XCENC  =      3564.07197274
  PAW double counting   =     98657.53671246   -97858.92000484
  entropy T*S    EENTRO =        -0.05562728
  eigenvalues    EBANDS =    -12975.25173370
  atomic energy  EATOM  =     87776.77885653
  Solvation  Ediel_sol  =         0.00000000
  ---------------------------------------------------
  free energy    TOTEN  =      -923.03256660 eV

  energy without entropy =     -922.97693932  energy(sigma->0) =     -923.00475296


--------------------------------------------------------------------------------------------------------




--------------------------------------- Iteration      2(  76)  ---------------------------------------


    POTLOK:  cpu time      0.0583: real time      0.0583
    SETDIJ:  cpu time      0.9705: real time      0.9711
    EDDIAG:  cpu time      0.6833: real time      0.6836
  RMM-DIIS:  cpu time      3.2453: real time      3.2471
    ORTHCH:  cpu time      0.1377: real time      0.1377
       DOS:  cpu time      0.0009: real time      0.0009
    CHARGE:  cpu time      0.2759: real time      0.2759
    MIXING:  cpu time      0.0092: real time      0.0092
    --------------------------------------------
      LOOP:  cpu time      5.3811: real time      5.3839

 eigenvalue-minimisations  :  5366
 total energy-change (2. order) : 0.3816071E+01  (-0.1096339E+01)
 number of electron    1168.0000014 magnetization      29.5995315
 augmentation part       25.4089210 magnetization       4.8839359

 Broyden mixing:
  rms(total) = 0.44390E+01    rms(broyden)= 0.44384E+01
  rms(prec ) = 0.46487E+01
  weight for this iteration     100.00

 eigenvalues of (default mixing * dielectric matrix)
  average eigenvalue GAMMA=   0.4101
  1.6188  0.8997  0.8641  0.7246  0.7246  0.7762  0.7762  0.3347  0.5551  0.5551
  0.2052  0.5159  0.5159  0.5219  0.5219  0.2180  0.2180  0.0111  0.4289  0.4289
  0.0615  0.3822  0.3822  0.2568  0.2568  0.3019  0.3019  0.2795  0.2795  0.1392
  0.1549  0.1681  0.2845  0.2845  0.2106  0.2106  0.2682  0.2682  0.2495  0.2495

 Free energy of the ion-electron system (eV)
  ---------------------------------------------------
  alpha Z        PSCENC =      2397.92104513
  Ewald energy   TEWEN  =    142375.48984807
  -Hartree energ DENC   =   -224820.76404595
  -exchange      EXHF   =         0.00000000
  -V(xc)+E(xc)   XCENC  =      3564.95334519
  PAW double counting   =     98838.76223575   -98038.09767146
  entropy T*S    EENTRO =        -0.04228455
  eigenvalues    EBANDS =    -13014.21782477
  atomic energy  EATOM  =     87776.77885653
  Solvation  Ediel_sol  =         0.00000000
  ---------------------------------------------------
  free energy    TOTEN  =      -919.21649606 eV

  energy without entropy =     -919.17421151  energy(sigma->0) =     -919.19535378


--------------------------------------------------------------------------------------------------------




--------------------------------------- Iteration      2(  77)  ---------------------------------------


    POTLOK:  cpu time      0.0591: real time      0.0591
    SETDIJ:  cpu time      0.9636: real time      0.9647
    EDDIAG:  cpu time      0.6848: real time      0.6850
  RMM-DIIS:  cpu time      3.2681: real time      3.2693
    ORTHCH:  cpu time      0.1406: real time      0.1411
       DOS:  cpu time      0.0010: real time      0.0010
    CHARGE:  cpu time      0.2701: real time      0.2701
    MIXING:  cpu time      0.0068: real time      0.0068
    --------------------------------------------
      LOOP:  cpu time      5.3940: real time      5.3972

 eigenvalue-minimisations  :  5379
 total energy-change (2. order) :-0.2481508E+02  (-0.4230557E+01)
 number of electron    1168.0000014 magnetization      30.1738503
 augmentation part       24.4412414 magnetization       6.0096181

 Broyden mixing:
  rms(total) = 0.48692E+01    rms(broyden)= 0.48668E+01
  rms(prec ) = 0.52608E+01
  weight for this iteration     100.00

 eigenvalues of (default mixing * dielectric matrix)
  average eigenvalue GAMMA=   0.4146
  1.6842  0.9230  0.8838  0.7821  0.7821  0.7126  0.7126  0.3348  0.5608  0.5608
  0.2065  0.5202  0.5202  0.5397  0.5397  0.2265  0.2265  0.4464  0.4464  0.0108
  0.4118  0.4118  0.0626  0.2571  0.2571  0.3118  0.3118  0.3474  0.2782  0.2782
  0.2963  0.2963  0.1380  0.1535  0.1672  0.2383  0.2383  0.2522  0.2522  0.2094
  0.2094

 Free energy of the ion-electron system (eV)
  ---------------------------------------------------
  alpha Z        PSCENC =      2397.92104513
  Ewald energy   TEWEN  =    142375.48984807
  -Hartree energ DENC   =   -224876.93171875
  -exchange      EXHF   =         0.00000000
  -V(xc)+E(xc)   XCENC  =      3555.35355955
  PAW double counting   =     98607.53433664   -97813.89517235
  entropy T*S    EENTRO =        -0.05105509
  eigenvalues    EBANDS =    -12966.23128006
  atomic energy  EATOM  =     87776.77885653
  Solvation  Ediel_sol  =         0.00000000
  ---------------------------------------------------
  free energy    TOTEN  =      -944.03158033 eV

  energy without entropy =     -943.98052524  energy(sigma->0) =     -944.00605278


--------------------------------------------------------------------------------------------------------




--------------------------------------- Iteration      2(  78)  ---------------------------------------


    POTLOK:  cpu time      0.0588: real time      0.0588
    SETDIJ:  cpu time      0.9723: real time      0.9726
    EDDIAG:  cpu time      0.6858: real time      0.6860
  RMM-DIIS:  cpu time      3.2676: real time      3.2690
    ORTHCH:  cpu time      0.1392: real time      0.1392
       DOS:  cpu time      0.0008: real time      0.0008
    CHARGE:  cpu time      0.2742: real time      0.2742
    MIXING:  cpu time      0.0068: real time      0.0068
    --------------------------------------------
      LOOP:  cpu time      5.4054: real time      5.4075

 eigenvalue-minimisations  :  5364
 total energy-change (2. order) : 0.1084871E+02  (-0.1841458E+01)
 number of electron    1168.0000015 magnetization      30.4597947
 augmentation part       24.6911303 magnetization       5.1993687

 Broyden mixing:
  rms(total) = 0.47209E+01    rms(broyden)= 0.47186E+01
  rms(prec ) = 0.51008E+01
  weight for this iteration     100.00

 eigenvalues of (default mixing * dielectric matrix)
  average eigenvalue GAMMA=   0.4139
  1.7099  0.9523  0.8875  0.3371  0.7125  0.7125  0.7512  0.7512  0.5809  0.5809
  0.2065  0.5358  0.5358  0.5877  0.5877  0.2263  0.2263  0.4399  0.4399  0.0107
  0.4138  0.4138  0.3360  0.3360  0.0724  0.2542  0.2542  0.2689  0.2689  0.3334
  0.2970  0.2970  0.1404  0.1404  0.2472  0.2472  0.2588  0.2549  0.1697  0.2094
  0.2094  0.1879

 Free energy of the ion-electron system (eV)
  ---------------------------------------------------
  alpha Z        PSCENC =      2397.92104513
  Ewald energy   TEWEN  =    142375.48984807
  -Hartree energ DENC   =   -224827.69643418
  -exchange      EXHF   =         0.00000000
  -V(xc)+E(xc)   XCENC  =      3560.67968181
  PAW double counting   =     98797.93519568   -98003.94308733
  entropy T*S    EENTRO =        -0.05687040
  eigenvalues    EBANDS =    -13010.29110098
  atomic energy  EATOM  =     87776.77885653
  Solvation  Ediel_sol  =         0.00000000
  ---------------------------------------------------
  free energy    TOTEN  =      -933.18286568 eV

  energy without entropy =     -933.12599528  energy(sigma->0) =     -933.15443048


--------------------------------------------------------------------------------------------------------




--------------------------------------- Iteration      2(  79)  ---------------------------------------


    POTLOK:  cpu time      0.0579: real time      0.0579
    SETDIJ:  cpu time      0.9733: real time      0.9740
    EDDIAG:  cpu time      0.6835: real time      0.6837
  RMM-DIIS:  cpu time      3.2390: real time      3.2407
    ORTHCH:  cpu time      0.1415: real time      0.1415
       DOS:  cpu time      0.0006: real time      0.0006
    CHARGE:  cpu time      0.2678: real time      0.2688
    MIXING:  cpu time      0.0074: real time      0.0074
    --------------------------------------------
      LOOP:  cpu time      5.3711: real time      5.3747

 eigenvalue-minimisations  :  5288
 total energy-change (2. order) : 0.2619452E+01  (-0.7933318E+00)
 number of electron    1168.0000014 magnetization      30.6873060
 augmentation part       24.7881900 magnetization       6.2490539

 Broyden mixing:
  rms(total) = 0.37092E+01    rms(broyden)= 0.37080E+01
  rms(prec ) = 0.39073E+01
  weight for this iteration     100.00

 eigenvalues of (default mixing * dielectric matrix)
  average eigenvalue GAMMA=   0.4175
  1.7454  0.9367  0.8807  0.3358  0.7090  0.7090  0.7395  0.7395  0.2065  0.5842
  0.5842  0.6299  0.6299  0.5809  0.5809  0.2279  0.2279  0.0107  0.4373  0.4373
  0.3928  0.3928  0.4052  0.4052  0.0644  0.2338  0.2338  0.2996  0.2996  0.2743
  0.2743  0.3376  0.2851  0.2851  0.1374  0.1486  0.1723  0.2001  0.2001  0.2524
  0.2524  0.2367  0.2367

 Free energy of the ion-electron system (eV)
  ---------------------------------------------------
  alpha Z        PSCENC =      2397.92104513
  Ewald energy   TEWEN  =    142375.48984807
  -Hartree energ DENC   =   -224804.96268161
  -exchange      EXHF   =         0.00000000
  -V(xc)+E(xc)   XCENC  =      3560.38706626
  PAW double counting   =     98923.94303899   -98128.83775251
  entropy T*S    EENTRO =        -0.06283759
  eigenvalues    EBANDS =    -13031.21999658
  atomic energy  EATOM  =     87776.77885653
  Solvation  Ediel_sol  =         0.00000000
  ---------------------------------------------------
  free energy    TOTEN  =      -930.56341330 eV

  energy without entropy =     -930.50057571  energy(sigma->0) =     -930.53199451


--------------------------------------------------------------------------------------------------------




--------------------------------------- Iteration      2(  80)  ---------------------------------------


    POTLOK:  cpu time      0.0574: real time      0.0574
    SETDIJ:  cpu time      0.9622: real time      0.9626
    EDDIAG:  cpu time      0.6845: real time      0.6845
  RMM-DIIS:  cpu time      3.2060: real time      3.2071
    ORTHCH:  cpu time      0.1378: real time      0.1383
       DOS:  cpu time      0.0009: real time      0.0010
    CHARGE:  cpu time      0.2706: real time      0.2706
    MIXING:  cpu time      0.0071: real time      0.0072
    --------------------------------------------
      LOOP:  cpu time      5.3267: real time      5.3287

 eigenvalue-minimisations  :  5292
 total energy-change (2. order) : 0.3378961E+00  (-0.6367124E+00)
 number of electron    1168.0000014 magnetization      30.8428600
 augmentation part       24.4366077 magnetization       8.4119123

 Broyden mixing:
  rms(total) = 0.35397E+01    rms(broyden)= 0.35381E+01
  rms(prec ) = 0.37514E+01
  weight for this iteration     100.00

 eigenvalues of (default mixing * dielectric matrix)
  average eigenvalue GAMMA=   0.4211
  1.8457  0.3383  0.9007  0.9007  0.9310  0.7198  0.7198  0.2065  0.5899  0.5899
  0.6563  0.6563  0.6014  0.6014  0.6264  0.2249  0.2249  0.0107  0.4428  0.4428
  0.3830  0.3830  0.4153  0.4153  0.0651  0.3167  0.3167  0.2567  0.2567  0.2771
  0.2771  0.3376  0.2875  0.2875  0.2031  0.2031  0.1406  0.1514  0.2749  0.1695
  0.1942  0.2368  0.2246  0.2246

 Free energy of the ion-electron system (eV)
  ---------------------------------------------------
  alpha Z        PSCENC =      2397.92104513
  Ewald energy   TEWEN  =    142375.48984807
  -Hartree energ DENC   =   -224789.39396971
  -exchange      EXHF   =         0.00000000
  -V(xc)+E(xc)   XCENC  =      3560.14080993
  PAW double counting   =     99074.19988466   -98277.84711693
  entropy T*S    EENTRO =        -0.09399257
  eigenvalues    EBANDS =    -13047.42088233
  atomic energy  EATOM  =     87776.77885653
  Solvation  Ediel_sol  =         0.00000000
  ---------------------------------------------------
  free energy    TOTEN  =      -930.22551722 eV

  energy without entropy =     -930.13152465  energy(sigma->0) =     -930.17852094


--------------------------------------------------------------------------------------------------------




--------------------------------------- Iteration      2(  81)  ---------------------------------------


    POTLOK:  cpu time      0.0582: real time      0.0582
    SETDIJ:  cpu time      0.9718: real time      0.9721
    EDDIAG:  cpu time      0.6844: real time      0.6846
  RMM-DIIS:  cpu time      3.2071: real time      3.2088
    ORTHCH:  cpu time      0.1383: real time      0.1383
       DOS:  cpu time      0.0009: real time      0.0009
    CHARGE:  cpu time      0.2727: real time      0.2727
    MIXING:  cpu time      0.0079: real time      0.0080
    --------------------------------------------
      LOOP:  cpu time      5.3413: real time      5.3436

 eigenvalue-minimisations  :  5268
 total energy-change (2. order) :-0.1026428E+00  (-0.4546728E+00)
 number of electron    1168.0000014 magnetization      30.6762936
 augmentation part       24.5032479 magnetization       7.5666964

 Broyden mixing:
  rms(total) = 0.31879E+01    rms(broyden)= 0.31867E+01
  rms(prec ) = 0.33404E+01
  weight for this iteration     100.00

 eigenvalues of (default mixing * dielectric matrix)
  average eigenvalue GAMMA=   0.4422
  1.7355  0.9931  0.2973  0.7002  0.7002  0.7076  0.7076  0.8214  0.8214  0.5701
  0.5701  0.7332  0.5926  0.5926  0.0864  0.4380  0.4380  0.4440  0.4440  0.0441
  0.4029  0.4029  0.3494  0.3494  0.1960  0.1960  0.3395  0.2649  0.2649  0.2925
  0.2925  0.1563  0.1563  0.1850  0.1850  0.2814  0.2279  0.2279  0.2396  0.2396

 Free energy of the ion-electron system (eV)
  ---------------------------------------------------
  alpha Z        PSCENC =      2397.92104513
  Ewald energy   TEWEN  =    142375.48984807
  -Hartree energ DENC   =   -224759.66801353
  -exchange      EXHF   =         0.00000000
  -V(xc)+E(xc)   XCENC  =      3559.00846391
  PAW double counting   =     99200.20886208   -98402.56283035
  entropy T*S    EENTRO =        -0.03107546
  eigenvalues    EBANDS =    -13077.47331641
  atomic energy  EATOM  =     87776.77885653
  Solvation  Ediel_sol  =         0.00000000
  ---------------------------------------------------
  free energy    TOTEN  =      -930.32816003 eV

  energy without entropy =     -930.29708456  energy(sigma->0) =     -930.31262230


--------------------------------------------------------------------------------------------------------




--------------------------------------- Iteration      2(  82)  ---------------------------------------


    POTLOK:  cpu time      0.0580: real time      0.0580
    SETDIJ:  cpu time      0.9625: real time      0.9632
    EDDIAG:  cpu time      0.6848: real time      0.6850
  RMM-DIIS:  cpu time      3.2404: real time      3.2421
    ORTHCH:  cpu time      0.1374: real time      0.1374
       DOS:  cpu time      0.0009: real time      0.0009
    CHARGE:  cpu time      0.2666: real time      0.2675
    MIXING:  cpu time      0.0066: real time      0.0066
    --------------------------------------------
      LOOP:  cpu time      5.3573: real time      5.3608

 eigenvalue-minimisations  :  5364
 total energy-change (2. order) :-0.1171125E+02  (-0.9685278E+00)
 number of electron    1168.0000014 magnetization      31.0737799
 augmentation part       24.2575392 magnetization       8.1524723

 Broyden mixing:
  rms(total) = 0.28818E+01    rms(broyden)= 0.28807E+01
  rms(prec ) = 0.30423E+01
  weight for this iteration     100.00

 eigenvalues of (default mixing * dielectric matrix)
  average eigenvalue GAMMA=   0.4486
  1.8148  1.0596  0.2928  0.8976  0.8976  0.7020  0.7020  0.7199  0.7199  0.5574
  0.5574  0.6993  0.0922  0.5698  0.5698  0.4423  0.4423  0.4563  0.4563  0.0451
  0.4352  0.3924  0.3924  0.3558  0.3558  0.1972  0.1972  0.2970  0.2970  0.2645
  0.2645  0.3357  0.1561  0.1561  0.1849  0.1849  0.2780  0.2348  0.2348  0.2257
  0.2568

 Free energy of the ion-electron system (eV)
  ---------------------------------------------------
  alpha Z        PSCENC =      2397.92104513
  Ewald energy   TEWEN  =    142375.48984807
  -Hartree energ DENC   =   -224766.62935355
  -exchange      EXHF   =         0.00000000
  -V(xc)+E(xc)   XCENC  =      3550.23708924
  PAW double counting   =     99055.09593751   -98258.18063539
  entropy T*S    EENTRO =        -0.05081704
  eigenvalues    EBANDS =    -13072.70137640
  atomic energy  EATOM  =     87776.77885653
  Solvation  Ediel_sol  =         0.00000000
  ---------------------------------------------------
  free energy    TOTEN  =      -942.03940590 eV

  energy without entropy =     -941.98858886  energy(sigma->0) =     -942.01399738


--------------------------------------------------------------------------------------------------------




--------------------------------------- Iteration      2(  83)  ---------------------------------------


    POTLOK:  cpu time      0.0592: real time      0.0592
    SETDIJ:  cpu time      0.9718: real time      0.9721
    EDDIAG:  cpu time      0.6833: real time      0.6834
  RMM-DIIS:  cpu time      3.2653: real time      3.2680
    ORTHCH:  cpu time      0.1378: real time      0.1378
       DOS:  cpu time      0.0009: real time      0.0009
    CHARGE:  cpu time      0.2732: real time      0.2733
    MIXING:  cpu time      0.0068: real time      0.0068
    --------------------------------------------
      LOOP:  cpu time      5.3983: real time      5.4015

 eigenvalue-minimisations  :  5292
 total energy-change (2. order) : 0.3662754E+01  (-0.5071488E+00)
 number of electron    1168.0000014 magnetization      31.2256752
 augmentation part       24.3119547 magnetization       8.4665713

 Broyden mixing:
  rms(total) = 0.28229E+01    rms(broyden)= 0.28213E+01
  rms(prec ) = 0.29773E+01
  weight for this iteration     100.00

 eigenvalues of (default mixing * dielectric matrix)
  average eigenvalue GAMMA=   0.4510
  1.8469  1.1613  0.2873  0.8914  0.8914  0.7016  0.7016  0.7443  0.7443  0.5404
  0.5404  0.7055  0.0928  0.5442  0.5442  0.4433  0.4433  0.5117  0.5117  0.4328
  0.4328  0.0409  0.3730  0.3730  0.3629  0.3456  0.3456  0.1956  0.1956  0.2721
  0.2721  0.2704  0.2704  0.2858  0.1559  0.1559  0.1867  0.1867  0.2339  0.2339
  0.2511  0.2202

 Free energy of the ion-electron system (eV)
  ---------------------------------------------------
  alpha Z        PSCENC =      2397.92104513
  Ewald energy   TEWEN  =    142375.48984807
  -Hartree energ DENC   =   -224733.27668400
  -exchange      EXHF   =         0.00000000
  -V(xc)+E(xc)   XCENC  =      3552.10465602
  PAW double counting   =     99118.25677479   -98318.95082105
  entropy T*S    EENTRO =        -0.05140601
  eigenvalues    EBANDS =    -13106.64892113
  atomic energy  EATOM  =     87776.77885653
  Solvation  Ediel_sol  =         0.00000000
  ---------------------------------------------------
  free energy    TOTEN  =      -938.37665165 eV

  energy without entropy =     -938.32524564  energy(sigma->0) =     -938.35094864


--------------------------------------------------------------------------------------------------------




--------------------------------------- Iteration      2(  84)  ---------------------------------------


    POTLOK:  cpu time      0.0591: real time      0.0591
    SETDIJ:  cpu time      0.9634: real time      0.9641
    EDDIAG:  cpu time      0.6855: real time      0.6858
  RMM-DIIS:  cpu time      3.1204: real time      3.1225
    ORTHCH:  cpu time      0.1368: real time      0.1368
       DOS:  cpu time      0.0007: real time      0.0007
    CHARGE:  cpu time      0.2733: real time      0.2734
    MIXING:  cpu time      0.0069: real time      0.0069
    --------------------------------------------
      LOOP:  cpu time      5.2461: real time      5.2493

 eigenvalue-minimisations  :  5116
 total energy-change (2. order) : 0.1898866E+01  (-0.2856398E+00)
 number of electron    1168.0000014 magnetization      31.3300451
 augmentation part       24.1482075 magnetization       8.1531813

 Broyden mixing:
  rms(total) = 0.27150E+01    rms(broyden)= 0.27124E+01
  rms(prec ) = 0.28570E+01
  weight for this iteration     100.00

 eigenvalues of (default mixing * dielectric matrix)
  average eigenvalue GAMMA=   0.4484
  1.8949  1.0884  1.0075  0.2698  0.7107  0.7107  0.7459  0.7459  0.7413  0.7413
  0.5457  0.5457  0.0896  0.5627  0.5627  0.5525  0.5525  0.4350  0.4350  0.4348
  0.4348  0.0413  0.4012  0.4012  0.3501  0.3501  0.1927  0.1927  0.3451  0.2703
  0.2703  0.2665  0.2665  0.1513  0.1513  0.1834  0.1834  0.2845  0.2409  0.2409
  0.2519  0.2181  0.2181

 Free energy of the ion-electron system (eV)
  ---------------------------------------------------
  alpha Z        PSCENC =      2397.92104513
  Ewald energy   TEWEN  =    142375.48984807
  -Hartree energ DENC   =   -224715.44236781
  -exchange      EXHF   =         0.00000000
  -V(xc)+E(xc)   XCENC  =      3552.87953502
  PAW double counting   =     99205.31356175   -98404.27003096
  entropy T*S    EENTRO =        -0.06672238
  eigenvalues    EBANDS =    -13125.08151066
  atomic energy  EATOM  =     87776.77885653
  Solvation  Ediel_sol  =         0.00000000
  ---------------------------------------------------
  free energy    TOTEN  =      -936.47778533 eV

  energy without entropy =     -936.41106295  energy(sigma->0) =     -936.44442414


--------------------------------------------------------------------------------------------------------




--------------------------------------- Iteration      2(  85)  ---------------------------------------


    POTLOK:  cpu time      0.0577: real time      0.0577
    SETDIJ:  cpu time      0.9727: real time      0.9734
    EDDIAG:  cpu time      0.6866: real time      0.6869
  RMM-DIIS:  cpu time      3.1190: real time      3.1209
    ORTHCH:  cpu time      0.1377: real time      0.1377
       DOS:  cpu time      0.0009: real time      0.0009
    CHARGE:  cpu time      0.2689: real time      0.2697
    MIXING:  cpu time      0.0070: real time      0.0070
    --------------------------------------------
      LOOP:  cpu time      5.2505: real time      5.2542

 eigenvalue-minimisations  :  5064
 total energy-change (2. order) :-0.2908974E+00  (-0.1616843E+00)
 number of electron    1168.0000014 magnetization      31.3491193
 augmentation part       24.1932559 magnetization       8.1628772

 Broyden mixing:
  rms(total) = 0.24033E+01    rms(broyden)= 0.24023E+01
  rms(prec ) = 0.24771E+01
  weight for this iteration     100.00

 eigenvalues of (default mixing * dielectric matrix)
  average eigenvalue GAMMA=   0.4423
  1.9002  1.0970  1.0003  0.7170  0.7170  0.7476  0.7476  0.2760  0.7239  0.7239
  0.5459  0.5459  0.5817  0.5817  0.5586  0.5586  0.0811  0.4348  0.4348  0.4317
  0.4317  0.4011  0.4011  0.0425  0.3553  0.3553  0.1873  0.1873  0.3454  0.2636
  0.2636  0.2738  0.2738  0.2851  0.1507  0.1507  0.1558  0.1860  0.1860  0.2411
  0.2411  0.2514  0.2141  0.2141

 Free energy of the ion-electron system (eV)
  ---------------------------------------------------
  alpha Z        PSCENC =      2397.92104513
  Ewald energy   TEWEN  =    142375.48984807
  -Hartree energ DENC   =   -224707.62034360
  -exchange      EXHF   =         0.00000000
  -V(xc)+E(xc)   XCENC  =      3552.03077977
  PAW double counting   =     99231.95025323   -98430.18581733
  entropy T*S    EENTRO =        -0.04784307
  eigenvalues    EBANDS =    -13133.08546143
  atomic energy  EATOM  =     87776.77885653
  Solvation  Ediel_sol  =         0.00000000
  ---------------------------------------------------
  free energy    TOTEN  =      -936.76868270 eV

  energy without entropy =     -936.72083963  energy(sigma->0) =     -936.74476116


--------------------------------------------------------------------------------------------------------




--------------------------------------- Iteration      2(  86)  ---------------------------------------


    POTLOK:  cpu time      0.0583: real time      0.0583
    SETDIJ:  cpu time      0.9719: real time      0.9722
    EDDIAG:  cpu time      0.6875: real time      0.6876
  RMM-DIIS:  cpu time      2.9368: real time      2.9382
    ORTHCH:  cpu time      0.1382: real time      0.1382
       DOS:  cpu time      0.0007: real time      0.0007
    CHARGE:  cpu time      0.2688: real time      0.2696
    MIXING:  cpu time      0.0081: real time      0.0081
    --------------------------------------------
      LOOP:  cpu time      5.0702: real time      5.0729

 eigenvalue-minimisations  :  4894
 total energy-change (2. order) :-0.1212266E+00  (-0.6906913E-01)
 number of electron    1168.0000014 magnetization      31.4172507
 augmentation part       24.1725424 magnetization       8.2941477

 Broyden mixing:
  rms(total) = 0.23042E+01    rms(broyden)= 0.23040E+01
  rms(prec ) = 0.23770E+01
  weight for this iteration     100.00

 eigenvalues of (default mixing * dielectric matrix)
  average eigenvalue GAMMA=   0.4743
  1.8013  1.0152  1.0152  0.7460  0.7460  0.6652  0.6652  0.6907  0.6907  0.6379
  0.6379  0.5009  0.5009  0.3887  0.3887  0.5274  0.5274  0.4445  0.4445  0.4391
  0.4391  0.3996  0.3996  0.3756  0.3416  0.3416  0.1964  0.1964  0.2703  0.2703
  0.1661  0.2499  0.2499  0.2812  0.1840  0.2239  0.2239  0.2215  0.2215  0.2480

 Free energy of the ion-electron system (eV)
  ---------------------------------------------------
  alpha Z        PSCENC =      2397.92104513
  Ewald energy   TEWEN  =    142375.48984807
  -Hartree energ DENC   =   -224696.07244115
  -exchange      EXHF   =         0.00000000
  -V(xc)+E(xc)   XCENC  =      3551.76344159
  PAW double counting   =     99245.59982037   -98443.29710622
  entropy T*S    EENTRO =        -0.07213453
  eigenvalues    EBANDS =    -13145.00123907
  atomic energy  EATOM  =     87776.77885653
  Solvation  Ediel_sol  =         0.00000000
  ---------------------------------------------------
  free energy    TOTEN  =      -936.88990929 eV

  energy without entropy =     -936.81777476  energy(sigma->0) =     -936.85384202


--------------------------------------------------------------------------------------------------------




--------------------------------------- Iteration      2(  87)  ---------------------------------------


    POTLOK:  cpu time      0.0587: real time      0.0587
    SETDIJ:  cpu time      0.9627: real time      0.9628
    EDDIAG:  cpu time      0.6886: real time      0.6889
  RMM-DIIS:  cpu time      3.2570: real time      3.2590
    ORTHCH:  cpu time      0.1377: real time      0.1378
       DOS:  cpu time      0.0007: real time      0.0008
    CHARGE:  cpu time      0.2701: real time      0.2701
    MIXING:  cpu time      0.0067: real time      0.0067
    --------------------------------------------
      LOOP:  cpu time      5.3823: real time      5.3847

 eigenvalue-minimisations  :  5311
 total energy-change (2. order) :-0.7190967E+01  (-0.7243328E+00)
 number of electron    1168.0000014 magnetization      31.4162026
 augmentation part       24.0378265 magnetization       8.4404020

 Broyden mixing:
  rms(total) = 0.24135E+01    rms(broyden)= 0.24109E+01
  rms(prec ) = 0.25563E+01
  weight for this iteration     100.00

 eigenvalues of (default mixing * dielectric matrix)
  average eigenvalue GAMMA=   0.4735
  1.8042  1.0044  1.0044  0.7358  0.7358  0.6589  0.6589  0.7374  0.7374  0.6532
  0.6532  0.5077  0.5077  0.4022  0.4022  0.5276  0.5276  0.4454  0.4454  0.4316
  0.4316  0.4159  0.4159  0.3370  0.3370  0.3426  0.3426  0.1926  0.1926  0.2740
  0.2740  0.1612  0.2537  0.2537  0.2806  0.1811  0.2593  0.2301  0.2301  0.2137
  0.2137

 Free energy of the ion-electron system (eV)
  ---------------------------------------------------
  alpha Z        PSCENC =      2397.92104513
  Ewald energy   TEWEN  =    142375.48984807
  -Hartree energ DENC   =   -224651.72769116
  -exchange      EXHF   =         0.00000000
  -V(xc)+E(xc)   XCENC  =      3549.56440744
  PAW double counting   =     99274.35567071   -98474.64713589
  entropy T*S    EENTRO =        -0.03085793
  eigenvalues    EBANDS =    -13191.78501964
  atomic energy  EATOM  =     87776.77885653
  Solvation  Ediel_sol  =         0.00000000
  ---------------------------------------------------
  free energy    TOTEN  =      -944.08087675 eV

  energy without entropy =     -944.05001882  energy(sigma->0) =     -944.06544779


--------------------------------------------------------------------------------------------------------




--------------------------------------- Iteration      2(  88)  ---------------------------------------


    POTLOK:  cpu time      0.0578: real time      0.0578
    SETDIJ:  cpu time      0.9706: real time      0.9711
    EDDIAG:  cpu time      0.6879: real time      0.6883
  RMM-DIIS:  cpu time      3.0861: real time      3.0885
    ORTHCH:  cpu time      0.1378: real time      0.1378
       DOS:  cpu time      0.0008: real time      0.0008
    CHARGE:  cpu time      0.2702: real time      0.2702
    MIXING:  cpu time      0.0067: real time      0.0068
    --------------------------------------------
      LOOP:  cpu time      5.2179: real time      5.2213

 eigenvalue-minimisations  :  5065
 total energy-change (2. order) :-0.1728145E+01  (-0.2247082E+00)
 number of electron    1168.0000014 magnetization      31.6269852
 augmentation part       24.0471495 magnetization       7.9114879

 Broyden mixing:
  rms(total) = 0.20361E+01    rms(broyden)= 0.20357E+01
  rms(prec ) = 0.21693E+01
  weight for this iteration     100.00

 eigenvalues of (default mixing * dielectric matrix)
  average eigenvalue GAMMA=   0.4828
  1.8165  1.0844  1.0844  0.7582  0.7582  0.7084  0.7084  0.6420  0.6420  0.7497
  0.7497  0.5099  0.5099  0.4078  0.4078  0.5339  0.5339  0.4271  0.4271  0.4363
  0.4363  0.4440  0.4440  0.3964  0.3964  0.3429  0.3429  0.3736  0.1959  0.1959
  0.2670  0.2670  0.1625  0.2512  0.2512  0.1837  0.2845  0.2160  0.2160  0.2327
  0.2327  0.2493

 Free energy of the ion-electron system (eV)
  ---------------------------------------------------
  alpha Z        PSCENC =      2397.92104513
  Ewald energy   TEWEN  =    142375.48984807
  -Hartree energ DENC   =   -224653.52743254
  -exchange      EXHF   =         0.00000000
  -V(xc)+E(xc)   XCENC  =      3548.24595933
  PAW double counting   =     99281.39585777   -98481.38839257
  entropy T*S    EENTRO =        -0.04271595
  eigenvalues    EBANDS =    -13190.68204751
  atomic energy  EATOM  =     87776.77885653
  Solvation  Ediel_sol  =         0.00000000
  ---------------------------------------------------
  free energy    TOTEN  =      -945.80902174 eV

  energy without entropy =     -945.76630578  energy(sigma->0) =     -945.78766376


--------------------------------------------------------------------------------------------------------




--------------------------------------- Iteration      2(  89)  ---------------------------------------


    POTLOK:  cpu time      0.0585: real time      0.0585
    SETDIJ:  cpu time      0.9702: real time      0.9707
    EDDIAG:  cpu time      0.6893: real time      0.6897
  RMM-DIIS:  cpu time      3.1158: real time      3.1177
    ORTHCH:  cpu time      0.1378: real time      0.1378
       DOS:  cpu time      0.0010: real time      0.0010
    CHARGE:  cpu time      0.2674: real time      0.2674
    MIXING:  cpu time      0.0069: real time      0.0070
    --------------------------------------------
      LOOP:  cpu time      5.2469: real time      5.2498

 eigenvalue-minimisations  :  5082
 total energy-change (2. order) :-0.3885400E+00  (-0.2590248E+00)
 number of electron    1168.0000014 magnetization      31.8687349
 augmentation part       24.1450671 magnetization       8.0710284

 Broyden mixing:
  rms(total) = 0.18992E+01    rms(broyden)= 0.18988E+01
  rms(prec ) = 0.20279E+01
  weight for this iteration     100.00

 eigenvalues of (default mixing * dielectric matrix)
  average eigenvalue GAMMA=   0.4920
  1.8444  1.1632  1.1632  0.8515  0.8515  0.7293  0.7293  0.6680  0.6680  0.7062
  0.7062  0.4950  0.4950  0.4000  0.4000  0.5267  0.5267  0.5502  0.5502  0.4395
  0.4395  0.4421  0.4421  0.3975  0.3975  0.3416  0.3416  0.3784  0.1947  0.1947
  0.2725  0.2725  0.1622  0.1820  0.2515  0.2515  0.2171  0.2171  0.2327  0.2327
  0.2852  0.2852  0.2588

 Free energy of the ion-electron system (eV)
  ---------------------------------------------------
  alpha Z        PSCENC =      2397.92104513
  Ewald energy   TEWEN  =    142375.48984807
  -Hartree energ DENC   =   -224638.27104233
  -exchange      EXHF   =         0.00000000
  -V(xc)+E(xc)   XCENC  =      3547.88280815
  PAW double counting   =     99302.58085881   -98501.65658408
  entropy T*S    EENTRO =        -0.05938850
  eigenvalues    EBANDS =    -13206.86396356
  atomic energy  EATOM  =     87776.77885653
  Solvation  Ediel_sol  =         0.00000000
  ---------------------------------------------------
  free energy    TOTEN  =      -946.19756178 eV

  energy without entropy =     -946.13817328  energy(sigma->0) =     -946.16786753


--------------------------------------------------------------------------------------------------------




--------------------------------------- Iteration      2(  90)  ---------------------------------------


    POTLOK:  cpu time      0.0576: real time      0.0585
    SETDIJ:  cpu time      0.9728: real time      0.9729
    EDDIAG:  cpu time      0.6879: real time      0.6883
  RMM-DIIS:  cpu time      3.1365: real time      3.1385
    ORTHCH:  cpu time      0.1379: real time      0.1379
       DOS:  cpu time      0.0007: real time      0.0007
    --------------------------------------------
      LOOP:  cpu time      4.9933: real time      4.9967

 eigenvalue-minimisations  :  5105
 total energy-change (2. order) : 0.1773572E+00  (-0.2648281E+00)
 number of electron    1168.0000014 magnetization      31.8687349
 augmentation part       24.1450671 magnetization       8.0710284

 Free energy of the ion-electron system (eV)
  ---------------------------------------------------
  alpha Z        PSCENC =      2397.92104513
  Ewald energy   TEWEN  =    142375.48984807
  -Hartree energ DENC   =   -224617.96001094
  -exchange      EXHF   =         0.00000000
  -V(xc)+E(xc)   XCENC  =      3548.29170649
  PAW double counting   =     99354.42990815   -98552.33787651
  entropy T*S    EENTRO =        -0.06037138
  eigenvalues    EBANDS =    -13228.57331015
  atomic energy  EATOM  =     87776.77885653
  Solvation  Ediel_sol  =         0.00000000
  ---------------------------------------------------
  free energy    TOTEN  =      -946.02020461 eV

  energy without entropy =     -945.95983323  energy(sigma->0) =     -945.99001892


--------------------------------------------------------------------------------------------------------




 average (electrostatic) potential at core
  the test charge radii are     1.1513  1.2793  0.7215  0.5201
  (the norm of the test charge is              1.0000)
       1 -86.7464       2 -86.3042       3 -86.4960       4 -86.3760       5 -86.8427
       6 -86.4687       7 -86.2177       8 -86.1886       9 -87.0804      10 -86.2700
      11 -86.6585      12 -86.4618      13 -86.8075      14 -86.4649      15 -87.0899
      16 -86.3507      17 -87.3690      18 -86.4963      19 -86.7365      20 -86.3873
      21 -85.6025      22 -86.3814      23 -87.6422      24 -86.5355      25 -86.5903
      26 -86.4809      27 -86.7889      28 -86.5478      29 -86.3041      30 -86.4437
      31 -84.5430      32 -86.3199      33 -62.7146      34 -64.4107      35 -62.4008
      36 -68.1347      37 -75.3775      38 -75.7234      39 -75.5440      40 -75.5369
      41 -77.0853      42 -76.5064      43 -75.6874      44 -75.4631      45 -75.9868
      46 -75.5139      47 -76.9430      48 -75.5080      49 -75.4613      50 -75.7704
      51 -75.5833      52 -77.0891      53 -77.3529      54 -75.5671      55 -75.7703
      56 -75.5553      57 -75.4172      58 -75.4346      59 -75.5585      60 -75.7819
      61 -75.8482      62 -75.5771      63 -76.9164      64 -75.4546      65 -75.9070
      66 -75.3605      67 -75.4171      68 -76.8748      69 -77.5099      70 -75.5906
      71 -76.3505      72 -76.3255      73 -75.4850      74 -76.8626      75 -75.5887
      76 -76.0561      77 -76.3019      78 -75.6363      79 -77.0592      80 -75.6539
      81 -75.7792      82 -75.4187      83 -75.6218      84 -77.0385      85 -80.1209
      86 -75.6549      87 -75.3485      88 -76.2878      89 -75.5438      90 -77.1436
      91 -75.6232      92 -75.9032      93 -75.0088      94 -75.4542      95 -76.9907
      96 -76.2834      97 -75.6898      98 -76.2572      99 -75.8747     100 -75.9661
     101 -77.0030     102 -75.6244     103 -75.5311     104 -75.3744     105 -75.5860
     106 -77.0323     107 -75.6590     108 -75.3968     109 -75.1980     110 -75.5349
     111 -77.0110     112 -76.8687     113 -75.6742     114 -75.2159     115 -75.3779
     116 -75.3246     117 -77.1480     118 -75.4830     119 -75.8829     120 -74.5827
     121 -75.4434     122 -77.1588     123 -76.6563     124 -76.7587     125 -77.0522
     126 -79.8332     127 -81.0622     128 -77.3301     129 -78.9827     130 -76.9401
     131 -76.9418     132 -79.5213     133 -90.9458     134 -77.7558     135 -76.9424
     136 -75.8049     137 -76.3395     138 -77.3454     139 -77.0006     140 -77.3226
     141 -75.4873     142 -76.9739     143 -77.2993     144 -76.8416     145 -77.5437
     146 -76.0580     147 -76.8320     148 -75.8514     149 -77.6558     150 -77.0716
     151 -76.2230     152 -76.6654     153 -76.5976     154 -76.3156     155 -11.5741
     156 -38.4152     157 -42.9824     158 -39.8341     159 -38.6571     160 -40.4320
     161 -34.9448     162 -38.4510     163 -35.1418     164 -37.7197     165 -39.0145
     166 -38.7553     167 -37.5578     168 -38.2818     169 -41.7095     170 -39.3146
     171 -80.7501     172 -49.6446     173 -38.8746     174 -38.9373     175 -51.3884
     176 -37.2227     177 -57.9780     178 -39.7212     179 -39.2839     180 -66.1211
     181 -38.6700     182 -44.0386     183 -42.3597     184 -42.6740     185 -40.4369
     186 -35.3933     187 -11.2235     188 -35.8534     189 -41.5057     190 -38.9915
     191 -39.2829     192 -38.8517     193 -43.4661     194 -45.2236
 
 
 
 E-fermi :  -1.5034     XC(G=0):  -6.0816     alpha+bet : -6.1813

 val. band max:       -1.5356432560   @ k =   0.0000   0.0000   0.0000
 cond. band min:      -1.4810311455   @ k =   0.0000   0.0000   0.0000
 fundamental gap:      0.0546121105
 Fermi energy:        -1.5034494168

 spin component 1

 k-point     1 :       0.0000    0.0000    0.0000
  band No.  band energies     occupation 
      1     -36.8196      1.00000
      2     -36.4835      1.00000
      3     -36.2355      1.00000
      4     -36.1956      1.00000
      5     -36.0038      1.00000
      6     -35.9915      1.00000
      7     -35.9336      1.00000
      8     -35.9217      1.00000
      9     -35.8996      1.00000
     10     -35.8825      1.00000
     11     -35.8138      1.00000
     12     -35.6637      1.00000
     13     -35.6521      1.00000
     14     -35.6312      1.00000
     15     -35.5933      1.00000
     16     -35.5808      1.00000
     17     -35.5729      1.00000
     18     -35.5619      1.00000
     19     -35.5588      1.00000
     20     -35.5358      1.00000
     21     -35.4866      1.00000
     22     -35.4767      1.00000
     23     -35.4724      1.00000
     24     -35.4653      1.00000
     25     -35.4549      1.00000
     26     -35.4370      1.00000
     27     -35.4068      1.00000
     28     -35.3961      1.00000
     29     -35.3779      1.00000
     30     -35.3214      1.00000
     31     -35.1267      1.00000
     32     -34.6500      1.00000
     33     -29.4201      1.00000
     34     -28.9651      1.00000
     35     -26.8237      1.00000
     36     -25.7108      1.00000
     37     -24.4673      1.00000
     38     -23.8603      1.00000
     39     -23.2937      1.00000
     40     -23.0821      1.00000
     41     -21.7542      1.00000
     42     -21.4030      1.00000
     43     -21.3730      1.00000
     44     -21.2445      1.00000
     45     -21.2061      1.00000
     46     -21.1255      1.00000
     47     -21.0720      1.00000
     48     -21.0062      1.00000
     49     -20.9920      1.00000
     50     -20.9662      1.00000
     51     -20.9084      1.00000
     52     -20.8811      1.00000
     53     -20.8781      1.00000
     54     -20.8654      1.00000
     55     -20.8601      1.00000
     56     -20.8276      1.00000
     57     -20.8151      1.00000
     58     -20.7769      1.00000
     59     -20.7554      1.00000
     60     -20.7326      1.00000
     61     -20.7137      1.00000
     62     -20.6954      1.00000
     63     -20.6668      1.00000
     64     -20.6532      1.00000
     65     -20.6278      1.00000
     66     -20.6244      1.00000
     67     -20.5894      1.00000
     68     -20.5751      1.00000
     69     -20.5683      1.00000
     70     -20.5467      1.00000
     71     -20.5387      1.00000
     72     -20.5237      1.00000
     73     -20.5044      1.00000
     74     -20.4663      1.00000
     75     -20.4319      1.00000
     76     -20.3846      1.00000
     77     -20.3582      1.00000
     78     -20.2994      1.00000
     79     -20.2657      1.00000
     80     -20.2500      1.00000
     81     -20.2332      1.00000
     82     -20.2021      1.00000
     83     -20.1848      1.00000
     84     -20.1332      1.00000
     85     -20.1217      1.00000
     86     -20.1166      1.00000
     87     -20.1141      1.00000
     88     -20.0974      1.00000
     89     -20.0953      1.00000
     90     -20.0706      1.00000
     91     -20.0550      1.00000
     92     -20.0295      1.00000
     93     -20.0204      1.00000
     94     -20.0157      1.00000
     95     -19.9694      1.00000
     96     -19.9474      1.00000
     97     -19.9430      1.00000
     98     -19.9073      1.00000
     99     -19.8423      1.00000
    100     -19.8056      1.00000
    101     -19.7932      1.00000
    102     -19.7461      1.00000
    103     -19.7171      1.00000
    104     -19.6987      1.00000
    105     -19.6819      1.00000
    106     -19.6489      1.00000
    107     -19.6305      1.00000
    108     -19.6243      1.00000
    109     -19.6092      1.00000
    110     -19.5608      1.00000
    111     -19.5457      1.00000
    112     -19.5385      1.00000
    113     -19.5202      1.00000
    114     -19.4861      1.00000
    115     -19.4413      1.00000
    116     -19.4109      1.00000
    117     -19.3800      1.00000
    118     -19.3540      1.00000
    119     -19.3031      1.00000
    120     -19.2812      1.00000
    121     -19.2182      1.00000
    122     -19.1856      1.00000
    123     -19.1621      1.00000
    124     -19.1206      1.00000
    125     -19.1049      1.00000
    126     -19.0588      1.00000
    127     -19.0363      1.00000
    128     -18.9328      1.00000
    129     -18.8685      1.00000
    130     -18.8402      1.00000
    131     -18.8088      1.00000
    132     -18.7995      1.00000
    133     -18.7682      1.00000
    134     -18.7397      1.00000
    135     -18.7000      1.00000
    136     -18.6747      1.00000
    137     -18.6319      1.00000
    138     -18.5632      1.00000
    139     -18.5209      1.00000
    140     -18.5027      1.00000
    141     -18.4737      1.00000
    142     -18.4694      1.00000
    143     -18.4287      1.00000
    144     -18.4112      1.00000
    145     -18.3882      1.00000
    146     -18.3391      1.00000
    147     -18.3112      1.00000
    148     -18.2927      1.00000
    149     -18.2363      1.00000
    150     -18.2355      1.00000
    151     -18.2270      1.00000
    152     -18.1985      1.00000
    153     -18.1975      1.00000
    154     -18.1840      1.00000
    155     -18.1693      1.00000
    156     -18.1378      1.00000
    157     -18.1293      1.00000
    158     -18.0711      1.00000
    159     -18.0640      1.00000
    160     -18.0557      1.00000
    161     -18.0456      1.00000
    162     -18.0347      1.00000
    163     -18.0230      1.00000
    164     -18.0137      1.00000
    165     -17.9596      1.00000
    166     -17.9465      1.00000
    167     -17.9412      1.00000
    168     -17.9326      1.00000
    169     -17.9180      1.00000
    170     -17.9109      1.00000
    171     -17.8939      1.00000
    172     -17.8815      1.00000
    173     -17.8677      1.00000
    174     -17.8625      1.00000
    175     -17.8453      1.00000
    176     -17.8207      1.00000
    177     -17.8066      1.00000
    178     -17.7866      1.00000
    179     -17.7774      1.00000
    180     -17.7593      1.00000
    181     -17.7213      1.00000
    182     -17.6898      1.00000
    183     -17.6722      1.00000
    184     -17.6237      1.00000
    185     -17.5987      1.00000
    186     -17.5713      1.00000
    187     -17.5145      1.00000
    188     -17.4514      1.00000
    189     -17.4419      1.00000
    190     -17.3941      1.00000
    191     -17.3590      1.00000
    192     -17.2993      1.00000
    193     -17.2289      1.00000
    194     -17.2167      1.00000
    195     -17.1233      1.00000
    196     -16.9814      1.00000
    197     -16.9276      1.00000
    198     -16.8801      1.00000
    199     -16.7818      1.00000
    200     -16.7397      1.00000
    201     -16.7229      1.00000
    202     -16.6886      1.00000
    203     -16.6608      1.00000
    204     -16.6564      1.00000
    205     -16.6105      1.00000
    206     -16.6050      1.00000
    207     -16.5306      1.00000
    208     -16.4937      1.00000
    209     -16.4616      1.00000
    210     -16.4493      1.00000
    211     -16.4371      1.00000
    212     -16.3951      1.00000
    213     -16.3717      1.00000
    214     -16.3254      1.00000
    215     -16.2508      1.00000
    216     -16.2301      1.00000
    217     -16.1935      1.00000
    218     -16.1893      1.00000
    219     -16.1605      1.00000
    220     -16.1058      1.00000
    221     -16.0735      1.00000
    222     -16.0308      1.00000
    223     -16.0091      1.00000
    224     -15.8340      1.00000
    225     -15.7905      1.00000
    226     -15.7567      1.00000
    227     -15.7060      1.00000
    228     -15.6640      1.00000
    229     -15.6474      1.00000
    230     -15.6340      1.00000
    231     -15.6005      1.00000
    232     -15.5942      1.00000
    233     -15.5717      1.00000
    234     -15.5466      1.00000
    235     -15.5385      1.00000
    236     -15.5184      1.00000
    237     -15.5096      1.00000
    238     -15.4897      1.00000
    239     -15.4452      1.00000
    240     -15.4383      1.00000
    241     -15.3824      1.00000
    242     -15.2702      1.00000
    243     -15.1993      1.00000
    244     -15.0676      1.00000
    245     -15.0250      1.00000
    246     -14.8973      1.00000
    247     -14.7631      1.00000
    248     -14.6300      1.00000
    249     -14.6275      1.00000
    250     -12.5853      1.00000
    251     -12.0565      1.00000
    252     -11.6668      1.00000
    253     -11.4966      1.00000
    254     -11.3020      1.00000
    255     -10.9603      1.00000
    256     -10.8070      1.00000
    257      -9.7636      1.00000
    258      -9.7064      1.00000
    259      -9.6540      1.00000
    260      -9.4088      1.00000
    261      -9.3301      1.00000
    262      -9.0665      1.00000
    263      -8.9779      1.00000
    264      -8.5110      1.00000
    265      -8.3337      1.00000
    266      -8.3178      1.00000
    267      -8.2433      1.00000
    268      -8.1554      1.00000
    269      -7.8763      1.00000
    270      -7.7320      1.00000
    271      -7.6077      1.00000
    272      -7.5457      1.00000
    273      -7.4544      1.00000
    274      -7.4352      1.00000
    275      -7.3686      1.00000
    276      -7.2717      1.00000
    277      -7.2524      1.00000
    278      -7.2171      1.00000
    279      -7.1974      1.00000
    280      -7.0769      1.00000
    281      -7.0504      1.00000
    282      -6.9753      1.00000
    283      -6.9306      1.00000
    284      -6.6958      1.00000
    285      -6.5796      1.00000
    286      -6.3287      1.00000
    287      -6.2764      1.00000
    288      -6.2643      1.00000
    289      -6.1244      1.00000
    290      -6.0801      1.00000
    291      -6.0308      1.00000
    292      -5.9690      1.00000
    293      -5.9550      1.00000
    294      -5.9146      1.00000
    295      -5.8765      1.00000
    296      -5.8387      1.00000
    297      -5.8100      1.00000
    298      -5.7806      1.00000
    299      -5.7625      1.00000
    300      -5.7356      1.00000
    301      -5.6840      1.00000
    302      -5.6466      1.00000
    303      -5.6178      1.00000
    304      -5.5881      1.00000
    305      -5.5699      1.00000
    306      -5.5584      1.00000
    307      -5.5354      1.00000
    308      -5.5149      1.00000
    309      -5.5101      1.00000
    310      -5.5003      1.00000
    311      -5.4799      1.00000
    312      -5.4484      1.00000
    313      -5.4454      1.00000
    314      -5.4310      1.00000
    315      -5.4270      1.00000
    316      -5.4185      1.00000
    317      -5.4077      1.00000
    318      -5.4038      1.00000
    319      -5.3835      1.00000
    320      -5.3720      1.00000
    321      -5.3616      1.00000
    322      -5.3475      1.00000
    323      -5.3412      1.00000
    324      -5.3284      1.00000
    325      -5.3203      1.00000
    326      -5.3047      1.00000
    327      -5.2969      1.00000
    328      -5.2862      1.00000
    329      -5.2765      1.00000
    330      -5.2642      1.00000
    331      -5.2437      1.00000
    332      -5.2328      1.00000
    333      -5.2241      1.00000
    334      -5.2201      1.00000
    335      -5.2081      1.00000
    336      -5.1916      1.00000
    337      -5.1833      1.00000
    338      -5.1718      1.00000
    339      -5.1669      1.00000
    340      -5.1585      1.00000
    341      -5.1396      1.00000
    342      -5.1168      1.00000
    343      -5.1031      1.00000
    344      -5.0826      1.00000
    345      -5.0772      1.00000
    346      -5.0693      1.00000
    347      -5.0556      1.00000
    348      -5.0390      1.00000
    349      -5.0232      1.00000
    350      -5.0179      1.00000
    351      -4.9958      1.00000
    352      -4.9858      1.00000
    353      -4.9693      1.00000
    354      -4.9625      1.00000
    355      -4.9552      1.00000
    356      -4.9436      1.00000
    357      -4.9276      1.00000
    358      -4.9183      1.00000
    359      -4.9108      1.00000
    360      -4.9062      1.00000
    361      -4.8965      1.00000
    362      -4.8814      1.00000
    363      -4.8701      1.00000
    364      -4.8636      1.00000
    365      -4.8528      1.00000
    366      -4.8496      1.00000
    367      -4.8469      1.00000
    368      -4.8422      1.00000
    369      -4.8328      1.00000
    370      -4.8302      1.00000
    371      -4.8239      1.00000
    372      -4.8097      1.00000
    373      -4.7970      1.00000
    374      -4.7695      1.00000
    375      -4.7541      1.00000
    376      -4.7377      1.00000
    377      -4.7342      1.00000
    378      -4.7248      1.00000
    379      -4.7166      1.00000
    380      -4.6998      1.00000
    381      -4.6823      1.00000
    382      -4.6729      1.00000
    383      -4.6654      1.00000
    384      -4.6424      1.00000
    385      -4.6306      1.00000
    386      -4.6169      1.00000
    387      -4.6035      1.00000
    388      -4.5965      1.00000
    389      -4.5629      1.00000
    390      -4.5519      1.00000
    391      -4.5439      1.00000
    392      -4.5311      1.00000
    393      -4.5139      1.00000
    394      -4.5064      1.00000
    395      -4.5006      1.00000
    396      -4.4923      1.00000
    397      -4.4793      1.00000
    398      -4.4621      1.00000
    399      -4.4439      1.00000
    400      -4.4369      1.00000
    401      -4.4312      1.00000
    402      -4.4098      1.00000
    403      -4.4052      1.00000
    404      -4.4016      1.00000
    405      -4.3970      1.00000
    406      -4.3900      1.00000
    407      -4.3815      1.00000
    408      -4.3604      1.00000
    409      -4.3489      1.00000
    410      -4.3349      1.00000
    411      -4.3258      1.00000
    412      -4.3226      1.00000
    413      -4.3068      1.00000
    414      -4.2982      1.00000
    415      -4.2860      1.00000
    416      -4.2803      1.00000
    417      -4.2697      1.00000
    418      -4.2583      1.00000
    419      -4.2430      1.00000
    420      -4.2271      1.00000
    421      -4.2215      1.00000
    422      -4.2102      1.00000
    423      -4.1806      1.00000
    424      -4.1714      1.00000
    425      -4.1224      1.00000
    426      -4.1143      1.00000
    427      -4.0927      1.00000
    428      -4.0563      1.00000
    429      -4.0459      1.00000
    430      -4.0414      1.00000
    431      -4.0211      1.00000
    432      -4.0071      1.00000
    433      -3.9889      1.00000
    434      -3.9728      1.00000
    435      -3.9588      1.00000
    436      -3.9517      1.00000
    437      -3.9455      1.00000
    438      -3.9319      1.00000
    439      -3.9220      1.00000
    440      -3.9103      1.00000
    441      -3.8869      1.00000
    442      -3.8818      1.00000
    443      -3.8779      1.00000
    444      -3.8585      1.00000
    445      -3.8295      1.00000
    446      -3.8219      1.00000
    447      -3.7960      1.00000
    448      -3.7816      1.00000
    449      -3.7610      1.00000
    450      -3.7446      1.00000
    451      -3.7431      1.00000
    452      -3.7243      1.00000
    453      -3.7152      1.00000
    454      -3.6926      1.00000
    455      -3.6841      1.00000
    456      -3.6727      1.00000
    457      -3.6571      1.00000
    458      -3.6530      1.00000
    459      -3.6353      1.00000
    460      -3.6290      1.00000
    461      -3.6188      1.00000
    462      -3.6032      1.00000
    463      -3.5864      1.00000
    464      -3.5829      1.00000
    465      -3.5669      1.00000
    466      -3.5636      1.00000
    467      -3.5440      1.00000
    468      -3.5381      1.00000
    469      -3.5251      1.00000
    470      -3.5064      1.00000
    471      -3.5028      1.00000
    472      -3.4939      1.00000
    473      -3.4816      1.00000
    474      -3.4726      1.00000
    475      -3.4623      1.00000
    476      -3.4334      1.00000
    477      -3.4232      1.00000
    478      -3.4199      1.00000
    479      -3.4081      1.00000
    480      -3.3984      1.00000
    481      -3.3881      1.00000
    482      -3.3815      1.00000
    483      -3.3703      1.00000
    484      -3.3582      1.00000
    485      -3.3527      1.00000
    486      -3.3405      1.00000
    487      -3.3344      1.00000
    488      -3.3162      1.00000
    489      -3.3101      1.00000
    490      -3.2978      1.00000
    491      -3.2902      1.00000
    492      -3.2774      1.00000
    493      -3.2702      1.00000
    494      -3.2583      1.00000
    495      -3.2513      1.00000
    496      -3.2408      1.00000
    497      -3.2328      1.00000
    498      -3.2251      1.00000
    499      -3.2126      1.00000
    500      -3.1982      1.00000
    501      -3.1840      1.00000
    502      -3.1686      1.00000
    503      -3.1565      1.00000
    504      -3.1438      1.00000
    505      -3.1384      1.00000
    506      -3.1354      1.00000
    507      -3.1187      1.00000
    508      -3.1096      1.00000
    509      -3.1017      1.00000
    510      -3.0943      1.00000
    511      -3.0838      1.00000
    512      -3.0812      1.00000
    513      -3.0700      1.00000
    514      -3.0648      1.00000
    515      -3.0585      1.00000
    516      -3.0429      1.00000
    517      -3.0276      1.00000
    518      -3.0213      1.00000
    519      -3.0128      1.00000
    520      -3.0060      1.00000
    521      -2.9947      1.00000
    522      -2.9904      1.00000
    523      -2.9881      1.00000
    524      -2.9742      1.00000
    525      -2.9678      1.00000
    526      -2.9598      1.00000
    527      -2.9493      1.00000
    528      -2.9360      1.00000
    529      -2.9296      1.00000
    530      -2.9230      1.00000
    531      -2.9087      1.00000
    532      -2.8938      1.00000
    533      -2.8857      1.00000
    534      -2.8779      1.00000
    535      -2.8620      1.00000
    536      -2.8571      1.00000
    537      -2.8524      1.00000
    538      -2.8432      1.00000
    539      -2.8420      1.00000
    540      -2.8384      1.00000
    541      -2.8189      1.00000
    542      -2.8142      1.00000
    543      -2.8012      1.00000
    544      -2.7962      1.00000
    545      -2.7819      1.00000
    546      -2.7752      1.00000
    547      -2.7736      1.00000
    548      -2.7630      1.00000
    549      -2.7451      1.00000
    550      -2.7300      1.00000
    551      -2.7217      1.00000
    552      -2.7064      1.00000
    553      -2.7045      1.00000
    554      -2.7015      1.00000
    555      -2.6905      1.00000
    556      -2.6824      1.00000
    557      -2.6699      1.00000
    558      -2.6507      1.00000
    559      -2.6305      1.00000
    560      -2.6279      1.00000
    561      -2.6158      1.00000
    562      -2.6126      1.00000
    563      -2.6028      1.00000
    564      -2.5959      1.00000
    565      -2.5777      1.00000
    566      -2.5600      1.00000
    567      -2.5520      1.00000
    568      -2.5404      1.00000
    569      -2.5317      1.00000
    570      -2.5207      1.00000
    571      -2.5140      1.00000
    572      -2.5101      1.00000
    573      -2.4762      1.00000
    574      -2.4512      1.00000
    575      -2.4488      1.00000
    576      -2.4350      1.00000
    577      -2.4341      1.00000
    578      -2.4334      1.00000
    579      -2.4117      1.00000
    580      -2.3960      1.00000
    581      -2.3887      1.00000
    582      -2.3732      1.00000
    583      -2.3689      1.00000
    584      -2.3413      1.00000
    585      -2.3361      1.00000
    586      -2.2823      1.00000
    587      -2.2686      1.00000
    588      -2.2384      1.00000
    589      -2.2041      1.00000
    590      -2.1933      1.00000
    591      -2.1788      1.00000
    592      -2.1174      1.00000
    593      -2.0939      1.00000
    594      -2.0759      1.00000
    595      -2.0523      1.00000
    596      -1.9479      1.00000
    597      -1.9186      1.00000
    598      -1.6757      1.00000
    599      -1.5746      0.97798
    600      -1.4082      0.00353
    601      -1.3060      0.00000
    602      -1.2333      0.00000
    603      -1.1848      0.00000
    604      -1.0862      0.00000
    605      -0.9704      0.00000
    606      -0.8927      0.00000
    607      -0.8011      0.00000
    608      -0.8006      0.00000
    609      -0.7793      0.00000
    610      -0.7186      0.00000
    611      -0.6783      0.00000
    612      -0.6695      0.00000
    613      -0.6462      0.00000
    614      -0.5796      0.00000
    615      -0.5461      0.00000
    616      -0.4510      0.00000
    617      -0.4514      0.00000
    618      -0.4219      0.00000
    619      -0.4205      0.00000
    620      -0.4031      0.00000
    621      -0.3855      0.00000
    622      -0.3730      0.00000
    623      -0.3627      0.00000
    624      -0.3522      0.00000
    625      -0.3283      0.00000
    626      -0.3009      0.00000
    627      -0.2845      0.00000
    628      -0.2695      0.00000
    629      -0.2481      0.00000
    630      -0.1747      0.00000
    631      -0.1647      0.00000
    632      -0.1519      0.00000
    633      -0.1168      0.00000
    634      -0.1029      0.00000
    635      -0.0718      0.00000
    636      -0.0621      0.00000
    637      -0.0374      0.00000
    638       0.0138      0.00000
    639       0.0228      0.00000
    640       0.0624      0.00000
    641       0.0824      0.00000
    642       0.0879      0.00000
    643       0.0985      0.00000
    644       0.1164      0.00000
    645       0.1375      0.00000
    646       0.1480      0.00000
    647       0.1544      0.00000
    648       0.1703      0.00000
    649       0.1841      0.00000
    650       0.1917      0.00000
    651       0.2025      0.00000
    652       0.2021      0.00000
    653       0.2174      0.00000
    654       0.2258      0.00000
    655       0.2270      0.00000
    656       0.2295      0.00000
    657       0.2444      0.00000
    658       0.2535      0.00000
    659       0.2608      0.00000
    660       0.2698      0.00000
    661       0.2811      0.00000
    662       0.2821      0.00000
    663       0.2888      0.00000
    664       0.2984      0.00000
    665       0.3055      0.00000
    666       0.3160      0.00000
    667       0.3281      0.00000
    668       0.3377      0.00000
    669       0.3512      0.00000
    670       0.3585      0.00000
    671       0.3666      0.00000
    672       0.3717      0.00000
    673       0.3763      0.00000
    674       0.3802      0.00000
    675       0.3871      0.00000
    676       0.3906      0.00000
    677       0.4058      0.00000
    678       0.4107      0.00000
    679       0.4181      0.00000
    680       0.4257      0.00000
    681       0.4371      0.00000
    682       0.4446      0.00000
    683       0.4480      0.00000
    684       0.4496      0.00000
    685       0.4489      0.00000
    686       0.4644      0.00000
    687       0.4666      0.00000
    688       0.4708      0.00000
    689       0.4793      0.00000
    690       0.4838      0.00000
    691       0.4933      0.00000
    692       0.4970      0.00000
    693       0.5074      0.00000
    694       0.5165      0.00000
    695       0.5234      0.00000
    696       0.5275      0.00000
    697       0.5326      0.00000
    698       0.5360      0.00000
    699       0.5453      0.00000
    700       0.5512      0.00000
    701       0.5586      0.00000
    702       0.5634      0.00000
    703       0.5742      0.00000
    704       0.5756      0.00000
    705       0.5830      0.00000
    706       0.5846      0.00000
    707       0.5879      0.00000
    708       0.5923      0.00000
    709       0.5962      0.00000
    710       0.6022      0.00000
    711       0.6068      0.00000
    712       0.6100      0.00000
    713       0.6148      0.00000
    714       0.6156      0.00000
    715       0.6231      0.00000
    716       0.6260      0.00000
    717       0.6295      0.00000
    718       0.6326      0.00000
    719       0.6359      0.00000
    720       0.6412      0.00000
    721       0.6462      0.00000
    722       0.6473      0.00000
    723       0.6532      0.00000
    724       0.6547      0.00000
    725       0.6586      0.00000
    726       0.6632      0.00000
    727       0.6657      0.00000
    728       0.6727      0.00000
    729       0.6747      0.00000
    730       0.6788      0.00000
    731       0.6811      0.00000
    732       0.6840      0.00000
    733       0.6925      0.00000
    734       0.6958      0.00000
    735       0.7043      0.00000
    736       0.7073      0.00000
    737       0.7090      0.00000
    738       0.7165      0.00000
    739       0.7213      0.00000
    740       0.7328      0.00000
    741       0.7336      0.00000
    742       0.7372      0.00000
    743       0.7435      0.00000
    744       0.7459      0.00000
    745       0.7558      0.00000
    746       0.7569      0.00000
    747       0.7619      0.00000
    748       0.7723      0.00000
    749       0.7809      0.00000
    750       0.7924      0.00000
    751       0.7994      0.00000
    752       0.8024      0.00000
    753       0.8210      0.00000
    754       0.8296      0.00000
    755       0.8368      0.00000
    756       0.8471      0.00000
    757       0.8734      0.00000
    758       0.8844      0.00000
    759       0.9539      0.00000
    760       1.1739      0.00000
    761       1.8907      0.00000
    762       2.4951      0.00000
    763      22.6549      0.00000
    764      54.8429      0.00000
    765     192.4265      0.00000
    766     192.9812      0.00000
    767     196.5089      0.00000
    768     205.1951      0.00000
 Fermi energy:        -1.5034494168

 spin component 2

 k-point     1 :       0.0000    0.0000    0.0000
  band No.  band energies     occupation 
      1     -36.8314      1.00000
      2     -36.4797      1.00000
      3     -36.2302      1.00000
      4     -36.1455      1.00000
      5     -36.0093      1.00000
      6     -35.9899      1.00000
      7     -35.9733      1.00000
      8     -35.9348      1.00000
      9     -35.9238      1.00000
     10     -35.8872      1.00000
     11     -35.7906      1.00000
     12     -35.6746      1.00000
     13     -35.6681      1.00000
     14     -35.6544      1.00000
     15     -35.6116      1.00000
     16     -35.6006      1.00000
     17     -35.5852      1.00000
     18     -35.5821      1.00000
     19     -35.5708      1.00000
     20     -35.5541      1.00000
     21     -35.5052      1.00000
     22     -35.4955      1.00000
     23     -35.4924      1.00000
     24     -35.4849      1.00000
     25     -35.4736      1.00000
     26     -35.4579      1.00000
     27     -35.4285      1.00000
     28     -35.4021      1.00000
     29     -35.3993      1.00000
     30     -35.3501      1.00000
     31     -35.3257      1.00000
     32     -34.5779      1.00000
     33     -29.4404      1.00000
     34     -28.9583      1.00000
     35     -26.8189      1.00000
     36     -25.6912      1.00000
     37     -24.5273      1.00000
     38     -24.3622      1.00000
     39     -23.2972      1.00000
     40     -23.0402      1.00000
     41     -21.7440      1.00000
     42     -21.4127      1.00000
     43     -21.3552      1.00000
     44     -21.3240      1.00000
     45     -21.2068      1.00000
     46     -21.1630      1.00000
     47     -21.0839      1.00000
     48     -21.0622      1.00000
     49     -20.9340      1.00000
     50     -20.9207      1.00000
     51     -20.8676      1.00000
     52     -20.8338      1.00000
     53     -20.8147      1.00000
     54     -20.7960      1.00000
     55     -20.7850      1.00000
     56     -20.7420      1.00000
     57     -20.7214      1.00000
     58     -20.7130      1.00000
     59     -20.6887      1.00000
     60     -20.6887      1.00000
     61     -20.6764      1.00000
     62     -20.6526      1.00000
     63     -20.6296      1.00000
     64     -20.6113      1.00000
     65     -20.5803      1.00000
     66     -20.5585      1.00000
     67     -20.5360      1.00000
     68     -20.5230      1.00000
     69     -20.4786      1.00000
     70     -20.4710      1.00000
     71     -20.4431      1.00000
     72     -20.4350      1.00000
     73     -20.3994      1.00000
     74     -20.3951      1.00000
     75     -20.3368      1.00000
     76     -20.3019      1.00000
     77     -20.2342      1.00000
     78     -20.2095      1.00000
     79     -20.1590      1.00000
     80     -20.1457      1.00000
     81     -20.0876      1.00000
     82     -20.0605      1.00000
     83     -20.0566      1.00000
     84     -20.0287      1.00000
     85     -19.9828      1.00000
     86     -19.9468      1.00000
     87     -19.9336      1.00000
     88     -19.9021      1.00000
     89     -19.8828      1.00000
     90     -19.7888      1.00000
     91     -19.7512      1.00000
     92     -19.6430      1.00000
     93     -19.6333      1.00000
     94     -19.6118      1.00000
     95     -19.5681      1.00000
     96     -19.5508      1.00000
     97     -19.5305      1.00000
     98     -19.4968      1.00000
     99     -19.4511      1.00000
    100     -19.4288      1.00000
    101     -19.4093      1.00000
    102     -19.3941      1.00000
    103     -19.3841      1.00000
    104     -19.3600      1.00000
    105     -19.3270      1.00000
    106     -19.2874      1.00000
    107     -19.2436      1.00000
    108     -19.1811      1.00000
    109     -19.1619      1.00000
    110     -19.1095      1.00000
    111     -19.0753      1.00000
    112     -19.0700      1.00000
    113     -18.9956      1.00000
    114     -18.9749      1.00000
    115     -18.8936      1.00000
    116     -18.8831      1.00000
    117     -18.8545      1.00000
    118     -18.7857      1.00000
    119     -18.7609      1.00000
    120     -18.7329      1.00000
    121     -18.7054      1.00000
    122     -18.6785      1.00000
    123     -18.6661      1.00000
    124     -18.6407      1.00000
    125     -18.6161      1.00000
    126     -18.6117      1.00000
    127     -18.5870      1.00000
    128     -18.5585      1.00000
    129     -18.5502      1.00000
    130     -18.5432      1.00000
    131     -18.5013      1.00000
    132     -18.4775      1.00000
    133     -18.4570      1.00000
    134     -18.4263      1.00000
    135     -18.3996      1.00000
    136     -18.3640      1.00000
    137     -18.3411      1.00000
    138     -18.3210      1.00000
    139     -18.3123      1.00000
    140     -18.2917      1.00000
    141     -18.2850      1.00000
    142     -18.2163      1.00000
    143     -18.2069      1.00000
    144     -18.1599      1.00000
    145     -18.1432      1.00000
    146     -18.0936      1.00000
    147     -18.0734      1.00000
    148     -18.0617      1.00000
    149     -18.0552      1.00000
    150     -18.0515      1.00000
    151     -18.0395      1.00000
    152     -17.9900      1.00000
    153     -17.9755      1.00000
    154     -17.9683      1.00000
    155     -17.9571      1.00000
    156     -17.9552      1.00000
    157     -17.9474      1.00000
    158     -17.9211      1.00000
    159     -17.9202      1.00000
    160     -17.9151      1.00000
    161     -17.9075      1.00000
    162     -17.8909      1.00000
    163     -17.8229      1.00000
    164     -17.8002      1.00000
    165     -17.7859      1.00000
    166     -17.7825      1.00000
    167     -17.7681      1.00000
    168     -17.7300      1.00000
    169     -17.6929      1.00000
    170     -17.6693      1.00000
    171     -17.6012      1.00000
    172     -17.5755      1.00000
    173     -17.5305      1.00000
    174     -17.4510      1.00000
    175     -17.3552      1.00000
    176     -17.3494      1.00000
    177     -17.3191      1.00000
    178     -17.1432      1.00000
    179     -17.0196      1.00000
    180     -17.0129      1.00000
    181     -16.9859      1.00000
    182     -16.9811      1.00000
    183     -16.9065      1.00000
    184     -16.8937      1.00000
    185     -16.8424      1.00000
    186     -16.8176      1.00000
    187     -16.7834      1.00000
    188     -16.7604      1.00000
    189     -16.7431      1.00000
    190     -16.7258      1.00000
    191     -16.6804      1.00000
    192     -16.6497      1.00000
    193     -16.5637      1.00000
    194     -16.5295      1.00000
    195     -16.4998      1.00000
    196     -16.4468      1.00000
    197     -16.4449      1.00000
    198     -16.4339      1.00000
    199     -16.4264      1.00000
    200     -16.3933      1.00000
    201     -16.3756      1.00000
    202     -16.3623      1.00000
    203     -16.3242      1.00000
    204     -16.2662      1.00000
    205     -16.2376      1.00000
    206     -16.1446      1.00000
    207     -16.1155      1.00000
    208     -16.0986      1.00000
    209     -16.0849      1.00000
    210     -16.0664      1.00000
    211     -16.0302      1.00000
    212     -15.9999      1.00000
    213     -15.9633      1.00000
    214     -15.9306      1.00000
    215     -15.9083      1.00000
    216     -15.9006      1.00000
    217     -15.8961      1.00000
    218     -15.8803      1.00000
    219     -15.8403      1.00000
    220     -15.8080      1.00000
    221     -15.7985      1.00000
    222     -15.7621      1.00000
    223     -15.5544      1.00000
    224     -15.5351      1.00000
    225     -15.5031      1.00000
    226     -15.4990      1.00000
    227     -15.4589      1.00000
    228     -15.4369      1.00000
    229     -15.4224      1.00000
    230     -15.4189      1.00000
    231     -15.4001      1.00000
    232     -15.3896      1.00000
    233     -15.3837      1.00000
    234     -15.3679      1.00000
    235     -15.3484      1.00000
    236     -15.3397      1.00000
    237     -15.3233      1.00000
    238     -15.3130      1.00000
    239     -15.2977      1.00000
    240     -15.2608      1.00000
    241     -15.2420      1.00000
    242     -15.1659      1.00000
    243     -15.0678      1.00000
    244     -14.9449      1.00000
    245     -14.8502      1.00000
    246     -14.7270      1.00000
    247     -14.6735      1.00000
    248     -14.5835      1.00000
    249     -14.5809      1.00000
    250     -12.4804      1.00000
    251     -11.9176      1.00000
    252     -11.7448      1.00000
    253     -11.5899      1.00000
    254     -11.2499      1.00000
    255     -10.9427      1.00000
    256     -10.8725      1.00000
    257      -9.7444      1.00000
    258      -9.6497      1.00000
    259      -9.5742      1.00000
    260      -9.4010      1.00000
    261      -9.3542      1.00000
    262      -9.2098      1.00000
    263      -8.9011      1.00000
    264      -8.8528      1.00000
    265      -8.6580      1.00000
    266      -8.3790      1.00000
    267      -8.3032      1.00000
    268      -8.2318      1.00000
    269      -8.0827      1.00000
    270      -7.9771      1.00000
    271      -7.8453      1.00000
    272      -7.6741      1.00000
    273      -7.5857      1.00000
    274      -7.5084      1.00000
    275      -7.4228      1.00000
    276      -7.3790      1.00000
    277      -7.2790      1.00000
    278      -7.1822      1.00000
    279      -7.1647      1.00000
    280      -7.1130      1.00000
    281      -7.0676      1.00000
    282      -6.9894      1.00000
    283      -6.8311      1.00000
    284      -6.8170      1.00000
    285      -6.7065      1.00000
    286      -6.4633      1.00000
    287      -6.2745      1.00000
    288      -6.1412      1.00000
    289      -6.1055      1.00000
    290      -6.0366      1.00000
    291      -5.9996      1.00000
    292      -5.9771      1.00000
    293      -5.8725      1.00000
    294      -5.8399      1.00000
    295      -5.7611      1.00000
    296      -5.6907      1.00000
    297      -5.6837      1.00000
    298      -5.6479      1.00000
    299      -5.6273      1.00000
    300      -5.5724      1.00000
    301      -5.5033      1.00000
    302      -5.4848      1.00000
    303      -5.4701      1.00000
    304      -5.4287      1.00000
    305      -5.4189      1.00000
    306      -5.4128      1.00000
    307      -5.4036      1.00000
    308      -5.3851      1.00000
    309      -5.3687      1.00000
    310      -5.3485      1.00000
    311      -5.3258      1.00000
    312      -5.3166      1.00000
    313      -5.2956      1.00000
    314      -5.2762      1.00000
    315      -5.2605      1.00000
    316      -5.2560      1.00000
    317      -5.2351      1.00000
    318      -5.2266      1.00000
    319      -5.1881      1.00000
    320      -5.1645      1.00000
    321      -5.1341      1.00000
    322      -5.1221      1.00000
    323      -5.1125      1.00000
    324      -5.1086      1.00000
    325      -5.0971      1.00000
    326      -5.0678      1.00000
    327      -5.0518      1.00000
    328      -5.0435      1.00000
    329      -5.0174      1.00000
    330      -5.0080      1.00000
    331      -4.9983      1.00000
    332      -4.9732      1.00000
    333      -4.9581      1.00000
    334      -4.9428      1.00000
    335      -4.9294      1.00000
    336      -4.9132      1.00000
    337      -4.8828      1.00000
    338      -4.8794      1.00000
    339      -4.8719      1.00000
    340      -4.8616      1.00000
    341      -4.8454      1.00000
    342      -4.8415      1.00000
    343      -4.8160      1.00000
    344      -4.8019      1.00000
    345      -4.7753      1.00000
    346      -4.7624      1.00000
    347      -4.7397      1.00000
    348      -4.7363      1.00000
    349      -4.7274      1.00000
    350      -4.7039      1.00000
    351      -4.6731      1.00000
    352      -4.6639      1.00000
    353      -4.6609      1.00000
    354      -4.6529      1.00000
    355      -4.6450      1.00000
    356      -4.6326      1.00000
    357      -4.6189      1.00000
    358      -4.5996      1.00000
    359      -4.5985      1.00000
    360      -4.5783      1.00000
    361      -4.5670      1.00000
    362      -4.5586      1.00000
    363      -4.5351      1.00000
    364      -4.5285      1.00000
    365      -4.5229      1.00000
    366      -4.5114      1.00000
    367      -4.5000      1.00000
    368      -4.4576      1.00000
    369      -4.4495      1.00000
    370      -4.4451      1.00000
    371      -4.4198      1.00000
    372      -4.4099      1.00000
    373      -4.4015      1.00000
    374      -4.3867      1.00000
    375      -4.3664      1.00000
    376      -4.3558      1.00000
    377      -4.3218      1.00000
    378      -4.3108      1.00000
    379      -4.2978      1.00000
    380      -4.2795      1.00000
    381      -4.2515      1.00000
    382      -4.2360      1.00000
    383      -4.2153      1.00000
    384      -4.1668      1.00000
    385      -4.1507      1.00000
    386      -4.1202      1.00000
    387      -4.0906      1.00000
    388      -4.0730      1.00000
    389      -4.0649      1.00000
    390      -4.0566      1.00000
    391      -4.0448      1.00000
    392      -4.0248      1.00000
    393      -4.0066      1.00000
    394      -3.9970      1.00000
    395      -3.9674      1.00000
    396      -3.9556      1.00000
    397      -3.9338      1.00000
    398      -3.9095      1.00000
    399      -3.8861      1.00000
    400      -3.8747      1.00000
    401      -3.8552      1.00000
    402      -3.8458      1.00000
    403      -3.8405      1.00000
    404      -3.8258      1.00000
    405      -3.7769      1.00000
    406      -3.7766      1.00000
    407      -3.7567      1.00000
    408      -3.7466      1.00000
    409      -3.7372      1.00000
    410      -3.7087      1.00000
    411      -3.7011      1.00000
    412      -3.6840      1.00000
    413      -3.6735      1.00000
    414      -3.6439      1.00000
    415      -3.6341      1.00000
    416      -3.6253      1.00000
    417      -3.6067      1.00000
    418      -3.5997      1.00000
    419      -3.5890      1.00000
    420      -3.5819      1.00000
    421      -3.5750      1.00000
    422      -3.5589      1.00000
    423      -3.5405      1.00000
    424      -3.5270      1.00000
    425      -3.5172      1.00000
    426      -3.4983      1.00000
    427      -3.4917      1.00000
    428      -3.4743      1.00000
    429      -3.4624      1.00000
    430      -3.4605      1.00000
    431      -3.4406      1.00000
    432      -3.4317      1.00000
    433      -3.4246      1.00000
    434      -3.4125      1.00000
    435      -3.4015      1.00000
    436      -3.3903      1.00000
    437      -3.3640      1.00000
    438      -3.3476      1.00000
    439      -3.3265      1.00000
    440      -3.3063      1.00000
    441      -3.3041      1.00000
    442      -3.2937      1.00000
    443      -3.2741      1.00000
    444      -3.2619      1.00000
    445      -3.2552      1.00000
    446      -3.2465      1.00000
    447      -3.2306      1.00000
    448      -3.2190      1.00000
    449      -3.2116      1.00000
    450      -3.2097      1.00000
    451      -3.1947      1.00000
    452      -3.1833      1.00000
    453      -3.1775      1.00000
    454      -3.1736      1.00000
    455      -3.1622      1.00000
    456      -3.1515      1.00000
    457      -3.1358      1.00000
    458      -3.1205      1.00000
    459      -3.1070      1.00000
    460      -3.1008      1.00000
    461      -3.0903      1.00000
    462      -3.0815      1.00000
    463      -3.0763      1.00000
    464      -3.0732      1.00000
    465      -3.0602      1.00000
    466      -3.0486      1.00000
    467      -3.0449      1.00000
    468      -3.0426      1.00000
    469      -3.0260      1.00000
    470      -3.0122      1.00000
    471      -3.0035      1.00000
    472      -2.9852      1.00000
    473      -2.9820      1.00000
    474      -2.9650      1.00000
    475      -2.9427      1.00000
    476      -2.9301      1.00000
    477      -2.9180      1.00000
    478      -2.9158      1.00000
    479      -2.9028      1.00000
    480      -2.8948      1.00000
    481      -2.8808      1.00000
    482      -2.8742      1.00000
    483      -2.8576      1.00000
    484      -2.8490      1.00000
    485      -2.8393      1.00000
    486      -2.8307      1.00000
    487      -2.8182      1.00000
    488      -2.8077      1.00000
    489      -2.8055      1.00000
    490      -2.8027      1.00000
    491      -2.7856      1.00000
    492      -2.7734      1.00000
    493      -2.7642      1.00000
    494      -2.7564      1.00000
    495      -2.7509      1.00000
    496      -2.7455      1.00000
    497      -2.7367      1.00000
    498      -2.7123      1.00000
    499      -2.7018      1.00000
    500      -2.6865      1.00000
    501      -2.6810      1.00000
    502      -2.6710      1.00000
    503      -2.6614      1.00000
    504      -2.6299      1.00000
    505      -2.6238      1.00000
    506      -2.6169      1.00000
    507      -2.6061      1.00000
    508      -2.6010      1.00000
    509      -2.5915      1.00000
    510      -2.5840      1.00000
    511      -2.5730      1.00000
    512      -2.5657      1.00000
    513      -2.5629      1.00000
    514      -2.5588      1.00000
    515      -2.5538      1.00000
    516      -2.5455      1.00000
    517      -2.5347      1.00000
    518      -2.5316      1.00000
    519      -2.5243      1.00000
    520      -2.5156      1.00000
    521      -2.5075      1.00000
    522      -2.4961      1.00000
    523      -2.4861      1.00000
    524      -2.4761      1.00000
    525      -2.4748      1.00000
    526      -2.4686      1.00000
    527      -2.4636      1.00000
    528      -2.4486      1.00000
    529      -2.4401      1.00000
    530      -2.4358      1.00000
    531      -2.4266      1.00000
    532      -2.4124      1.00000
    533      -2.4054      1.00000
    534      -2.3951      1.00000
    535      -2.3823      1.00000
    536      -2.3586      1.00000
    537      -2.3565      1.00000
    538      -2.3504      1.00000
    539      -2.3337      1.00000
    540      -2.3143      1.00000
    541      -2.3119      1.00000
    542      -2.2998      1.00000
    543      -2.2707      1.00000
    544      -2.2631      1.00000
    545      -2.2562      1.00000
    546      -2.2393      1.00000
    547      -2.2187      1.00000
    548      -2.2174      1.00000
    549      -2.1996      1.00000
    550      -2.1884      1.00000
    551      -2.1685      1.00000
    552      -2.1342      1.00000
    553      -2.1109      1.00000
    554      -2.0972      1.00000
    555      -2.0886      1.00000
    556      -2.0489      1.00000
    557      -1.9760      1.00000
    558      -1.9623      1.00000
    559      -1.9295      1.00000
    560      -1.9203      1.00000
    561      -1.8736      1.00000
    562      -1.8306      1.00000
    563      -1.7504      1.00000
    564      -1.6452      0.99997
    565      -1.6222      0.99961
    566      -1.5567      0.93398
    567      -1.5468      0.88987
    568      -1.5411      0.85629
    569      -1.5356      0.81874
    570      -1.4810      0.26301
    571      -1.4567      0.09296
    572      -1.4504      0.06659
    573      -1.4486      0.06056
    574      -1.4315      0.02097
    575      -1.4228      0.01127
    576      -1.4094      0.00390
    577      -1.3847      0.00039
    578      -1.3819      0.00029
    579      -1.3704      0.00008
    580      -1.3536      0.00001
    581      -1.3461      0.00000
    582      -1.3410      0.00000
    583      -1.3348      0.00000
    584      -1.3267      0.00000
    585      -1.3141      0.00000
    586      -1.3056      0.00000
    587      -1.3045      0.00000
    588      -1.2953      0.00000
    589      -1.2639      0.00000
    590      -1.2552      0.00000
    591      -1.2484      0.00000
    592      -1.2335      0.00000
    593      -1.2211      0.00000
    594      -1.2040      0.00000
    595      -1.1882      0.00000
    596      -1.1854      0.00000
    597      -1.1619      0.00000
    598      -1.1577      0.00000
    599      -1.1359      0.00000
    600      -1.1244      0.00000
    601      -1.1148      0.00000
    602      -1.1034      0.00000
    603      -1.0996      0.00000
    604      -1.0598      0.00000
    605      -1.0477      0.00000
    606      -1.0382      0.00000
    607      -1.0249      0.00000
    608      -1.0226      0.00000
    609      -0.9233      0.00000
    610      -0.8556      0.00000
    611      -0.8317      0.00000
    612      -0.7534      0.00000
    613      -0.5990      0.00000
    614      -0.5627      0.00000
    615      -0.5295      0.00000
    616      -0.5134      0.00000
    617      -0.4713      0.00000
    618      -0.4110      0.00000
    619      -0.3936      0.00000
    620      -0.3913      0.00000
    621      -0.3742      0.00000
    622      -0.3317      0.00000
    623      -0.3284      0.00000
    624      -0.3257      0.00000
    625      -0.3236      0.00000
    626      -0.2839      0.00000
    627      -0.2353      0.00000
    628      -0.2018      0.00000
    629      -0.1871      0.00000
    630      -0.1801      0.00000
    631      -0.1684      0.00000
    632      -0.1402      0.00000
    633      -0.1111      0.00000
    634      -0.0974      0.00000
    635      -0.0587      0.00000
    636      -0.0525      0.00000
    637      -0.0382      0.00000
    638       0.0024      0.00000
    639       0.0443      0.00000
    640       0.0583      0.00000
    641       0.0665      0.00000
    642       0.0812      0.00000
    643       0.0936      0.00000
    644       0.1041      0.00000
    645       0.1376      0.00000
    646       0.1416      0.00000
    647       0.1450      0.00000
    648       0.1614      0.00000
    649       0.1670      0.00000
    650       0.1666      0.00000
    651       0.1796      0.00000
    652       0.1890      0.00000
    653       0.2043      0.00000
    654       0.2180      0.00000
    655       0.2241      0.00000
    656       0.2270      0.00000
    657       0.2392      0.00000
    658       0.2480      0.00000
    659       0.2609      0.00000
    660       0.2643      0.00000
    661       0.2765      0.00000
    662       0.2812      0.00000
    663       0.2881      0.00000
    664       0.2941      0.00000
    665       0.3111      0.00000
    666       0.3139      0.00000
    667       0.3299      0.00000
    668       0.3385      0.00000
    669       0.3486      0.00000
    670       0.3527      0.00000
    671       0.3614      0.00000
    672       0.3674      0.00000
    673       0.3737      0.00000
    674       0.3791      0.00000
    675       0.3838      0.00000
    676       0.3892      0.00000
    677       0.4026      0.00000
    678       0.4070      0.00000
    679       0.4083      0.00000
    680       0.4216      0.00000
    681       0.4244      0.00000
    682       0.4274      0.00000
    683       0.4299      0.00000
    684       0.4397      0.00000
    685       0.4486      0.00000
    686       0.4526      0.00000
    687       0.4617      0.00000
    688       0.4646      0.00000
    689       0.4759      0.00000
    690       0.4816      0.00000
    691       0.4935      0.00000
    692       0.4970      0.00000
    693       0.5028      0.00000
    694       0.5050      0.00000
    695       0.5085      0.00000
    696       0.5170      0.00000
    697       0.5288      0.00000
    698       0.5329      0.00000
    699       0.5359      0.00000
    700       0.5457      0.00000
    701       0.5533      0.00000
    702       0.5579      0.00000
    703       0.5634      0.00000
    704       0.5656      0.00000
    705       0.5695      0.00000
    706       0.5745      0.00000
    707       0.5810      0.00000
    708       0.5860      0.00000
    709       0.5948      0.00000
    710       0.6003      0.00000
    711       0.6036      0.00000
    712       0.6053      0.00000
    713       0.6115      0.00000
    714       0.6221      0.00000
    715       0.6243      0.00000
    716       0.6315      0.00000
    717       0.6348      0.00000
    718       0.6368      0.00000
    719       0.6408      0.00000
    720       0.6448      0.00000
    721       0.6482      0.00000
    722       0.6550      0.00000
    723       0.6576      0.00000
    724       0.6594      0.00000
    725       0.6653      0.00000
    726       0.6680      0.00000
    727       0.6702      0.00000
    728       0.6738      0.00000
    729       0.6841      0.00000
    730       0.6933      0.00000
    731       0.6962      0.00000
    732       0.6993      0.00000
    733       0.7037      0.00000
    734       0.7106      0.00000
    735       0.7156      0.00000
    736       0.7223      0.00000
    737       0.7267      0.00000
    738       0.7332      0.00000
    739       0.7435      0.00000
    740       0.7487      0.00000
    741       0.7515      0.00000
    742       0.7609      0.00000
    743       0.7706      0.00000
    744       0.7836      0.00000
    745       0.7879      0.00000
    746       0.7927      0.00000
    747       0.8036      0.00000
    748       0.8194      0.00000
    749       0.8385      0.00000
    750       0.8423      0.00000
    751       0.8733      0.00000
    752       0.8811      0.00000
    753       1.2332      0.00000
    754       1.2968      0.00000
    755       1.4376      0.00000
    756       1.4868      0.00000
    757       1.5236      0.00000
    758       1.9324      0.00000
    759       2.3068      0.00000
    760       2.7124      0.00000
    761     182.4362      0.00000
    762     184.5112      0.00000
    763     188.2375      0.00000
    764     188.4893      0.00000
    765     193.9431      0.00000
    766     197.3266      0.00000
    767     199.1810      0.00000
    768     205.5519      0.00000


--------------------------------------------------------------------------------------------------------


 soft charge-density along one line, spin component           1
         0         1         2         3         4         5         6         7         8         9
 total charge-density along one line
 
 soft charge-density along one line, spin component           2
         0         1         2         3         4         5         6         7         8         9
 total charge-density along one line
 
 pseudopotential strength for first ion, spin component:           1
 24.877 -19.017   0.017   0.054   0.057  -0.011  -0.033  -0.036
-19.017  10.027  -0.008  -0.027  -0.027   0.006   0.020   0.021
  0.017  -0.008  14.055  -0.006   0.001  -6.454   0.009  -0.007
  0.054  -0.027  -0.006  14.040  -0.011   0.009  -6.433   0.013
  0.057  -0.027   0.001  -0.011  14.069  -0.007   0.013  -6.474
 -0.011   0.006  -6.454   0.009  -0.007  13.989  -0.010   0.009
 -0.033   0.020   0.009  -6.433   0.013  -0.010  13.969  -0.012
 -0.036   0.021  -0.007   0.013  -6.474   0.009  -0.012  14.010
  0.003   0.000   0.018  -0.001   0.007  -0.009  -0.000  -0.003
 -0.005   0.001   0.016   0.006  -0.001  -0.008  -0.003  -0.000
 -0.009   0.002  -0.003   0.021  -0.010   0.002  -0.008   0.005
 -0.008   0.002  -0.001   0.018   0.015  -0.000  -0.009  -0.008
  0.005  -0.001  -0.004  -0.001   0.018   0.003   0.000  -0.009
 -0.006  -0.001  -0.034   0.001  -0.013   0.019  -0.000   0.006
  0.012  -0.002  -0.031  -0.011   0.001   0.017   0.005  -0.000
  0.020  -0.005   0.006  -0.040   0.020  -0.003   0.017  -0.011
  0.017  -0.005   0.001  -0.035  -0.029  -0.000   0.018   0.017
 -0.012   0.002   0.008   0.001  -0.035  -0.006  -0.000   0.018
 -0.003   0.000   0.006  -0.010   0.005  -0.004   0.007  -0.005
  0.000   0.000  -0.004   0.006  -0.016   0.003  -0.006   0.011
 -0.000   0.000  -0.008  -0.003  -0.000   0.004   0.002  -0.000
 -0.004   0.000   0.003  -0.008   0.003  -0.003   0.003  -0.002
 -0.001   0.000  -0.000  -0.003  -0.011  -0.000   0.001   0.005
  0.001  -0.000  -0.009   0.005  -0.002   0.005  -0.003   0.001
 -0.001   0.000  -0.005   0.001   0.006   0.005  -0.001  -0.004
 -0.003   0.000   0.006  -0.010   0.005  -0.004   0.007  -0.005
  0.000   0.000  -0.004   0.006  -0.016   0.003  -0.006   0.011
 -0.000   0.000  -0.008  -0.003  -0.000   0.004   0.002  -0.000
 -0.004   0.000   0.003  -0.008   0.003  -0.003   0.003  -0.002
 -0.001   0.000  -0.000  -0.003  -0.011  -0.000   0.001   0.006
  0.001  -0.000  -0.009   0.005  -0.002   0.005  -0.003   0.001
 -0.001   0.000  -0.005   0.001   0.006   0.005  -0.001  -0.004
 pseudopotential strength for first ion, spin component:           2
 24.858 -19.001   0.017   0.054   0.057  -0.010  -0.033  -0.035
-19.001  10.015  -0.008  -0.026  -0.027   0.006   0.020   0.021
  0.017  -0.008  14.036  -0.009   0.010  -6.442   0.011  -0.012
  0.054  -0.026  -0.009  14.030  -0.005   0.011  -6.426   0.009
  0.057  -0.027   0.010  -0.005  14.051  -0.012   0.009  -6.463
 -0.010   0.006  -6.442   0.011  -0.012  13.982  -0.011   0.011
 -0.033   0.020   0.011  -6.426   0.009  -0.011  13.964  -0.011
 -0.035   0.021  -0.012   0.009  -6.463   0.011  -0.011  14.004
  0.007  -0.002   0.018  -0.001   0.008  -0.009  -0.000  -0.003
 -0.006   0.002   0.016   0.006  -0.001  -0.008  -0.003  -0.000
 -0.006   0.001  -0.003   0.021  -0.010   0.002  -0.008   0.005
 -0.005   0.001  -0.001   0.018   0.015  -0.000  -0.009  -0.008
  0.005  -0.001  -0.004  -0.001   0.018   0.003   0.000  -0.009
 -0.015   0.004  -0.034   0.001  -0.014   0.019  -0.000   0.006
  0.014  -0.003  -0.031  -0.011   0.001   0.017   0.006  -0.000
  0.015  -0.003   0.006  -0.040   0.020  -0.003   0.017  -0.011
  0.011  -0.002   0.001  -0.034  -0.029  -0.000   0.018   0.017
 -0.012   0.003   0.007   0.001  -0.035  -0.005  -0.000   0.018
 -0.004   0.000   0.005  -0.011   0.005  -0.004   0.008  -0.004
  0.001   0.000  -0.002   0.002  -0.015   0.002   0.000   0.012
 -0.000   0.000  -0.010  -0.002  -0.002   0.006   0.001   0.002
 -0.004  -0.000   0.002  -0.006   0.002  -0.002   0.002  -0.002
 -0.000   0.000  -0.002  -0.003  -0.011   0.002   0.003   0.007
  0.002  -0.000  -0.012   0.004  -0.003   0.009  -0.002   0.003
 -0.000  -0.000  -0.003  -0.001   0.003   0.002   0.000  -0.001
 -0.004   0.000   0.005  -0.011   0.005  -0.004   0.008  -0.004
  0.000   0.000  -0.002   0.002  -0.015   0.002  -0.000   0.012
 -0.000   0.000  -0.010  -0.002  -0.002   0.006   0.001   0.002
 -0.004  -0.000   0.002  -0.006   0.002  -0.002   0.003  -0.002
 -0.000   0.000  -0.002  -0.003  -0.012   0.002   0.003   0.007
  0.001  -0.000  -0.012   0.004  -0.003   0.009  -0.002   0.003
 -0.000  -0.000  -0.003  -0.001   0.003   0.002   0.000  -0.001
 total augmentation occupancy for first ion, spin component:           1
  1.910  -0.271   0.002   0.005   0.004   0.000   0.003   0.001   0.000   0.001   0.006   0.000  -0.002   0.002  -0.002  -0.003
 -0.271   0.823   0.010   0.083   0.046  -0.003  -0.020  -0.016   0.041  -0.045  -0.110  -0.036   0.070   0.006  -0.008  -0.019
  0.002   0.010   2.048  -0.001   0.001  -0.066   0.001  -0.001   0.019   0.016  -0.003  -0.012   0.012  -0.000   0.000   0.000
  0.005   0.083  -0.001   2.034  -0.001   0.001  -0.057   0.001  -0.009   0.006   0.088   0.022  -0.002  -0.001  -0.000   0.007
  0.004   0.046   0.001  -0.001   2.053  -0.001   0.001  -0.071   0.020  -0.012  -0.017   0.007   0.028   0.000  -0.001  -0.000
  0.000  -0.003  -0.066   0.001  -0.001   0.013  -0.001   0.001  -0.009  -0.003   0.002   0.007  -0.005  -0.001  -0.001   0.000
  0.003  -0.020   0.001  -0.057   0.001  -0.001   0.010  -0.001   0.005  -0.002  -0.031  -0.009   0.001   0.001  -0.000  -0.005
  0.001  -0.016  -0.001   0.001  -0.071   0.001  -0.001   0.016  -0.009   0.007   0.009   0.001  -0.013  -0.001   0.001   0.001
  0.000   0.041   0.019  -0.009   0.020  -0.009   0.005  -0.009   0.570  -0.023  -0.037  -0.239   0.022   0.094  -0.004  -0.005
  0.001  -0.045   0.016   0.006  -0.012  -0.003  -0.002   0.007  -0.023   0.371   0.014   0.020  -0.178  -0.004   0.057   0.003
  0.006  -0.110  -0.003   0.088  -0.017   0.002  -0.031   0.009  -0.037   0.014   0.499   0.003  -0.044  -0.005   0.003   0.079
  0.000  -0.036  -0.012   0.022   0.007   0.007  -0.009   0.001  -0.239   0.020   0.003   0.447  -0.023  -0.044   0.004   0.000
 -0.002   0.070   0.012  -0.002   0.028  -0.005   0.001  -0.013   0.022  -0.178  -0.044  -0.023   0.527   0.003  -0.032  -0.008
  0.002   0.006  -0.000  -0.001   0.000  -0.001   0.001  -0.001   0.094  -0.004  -0.005  -0.044   0.003   0.017  -0.001  -0.001
 -0.002  -0.008   0.000  -0.000  -0.001  -0.001  -0.000   0.001  -0.004   0.057   0.003   0.004  -0.032  -0.001   0.009   0.001
 -0.003  -0.019   0.000   0.007  -0.000   0.000  -0.005   0.001  -0.005   0.003   0.079   0.000  -0.008  -0.001   0.001   0.014
 -0.002  -0.005  -0.001   0.001   0.000   0.001  -0.001   0.000  -0.044   0.003   0.000   0.071  -0.004  -0.009   0.001   0.000
  0.002   0.012   0.001  -0.000   0.001  -0.001   0.000  -0.002   0.003  -0.032  -0.008  -0.003   0.086   0.001  -0.006  -0.002
 -0.011   0.106   0.048  -0.174   0.021  -0.033   0.095  -0.019   0.319  -0.011  -0.140  -0.205   0.074   0.061  -0.004  -0.016
  0.000  -0.247  -0.030   0.029  -0.244   0.012  -0.012   0.136  -0.008   0.142   0.078   0.031  -0.097   0.002   0.024   0.014
 -0.004   0.007  -0.128  -0.020  -0.003   0.048   0.002   0.003  -0.063   0.132   0.038  -0.016  -0.059  -0.010   0.025   0.005
 -0.035   0.405   0.025  -0.090   0.017  -0.021   0.020  -0.011   0.187   0.005   0.593  -0.202   0.055   0.037  -0.000   0.101
 -0.006  -0.058  -0.003  -0.036  -0.141   0.003   0.007   0.060  -0.087  -0.026   0.088   0.116  -0.079  -0.014  -0.002   0.014
  0.003  -0.067  -0.191   0.048  -0.020   0.102  -0.022   0.009  -0.103  -0.018   0.024   0.222  -0.034  -0.022  -0.005   0.003
 -0.004   0.056  -0.031   0.003   0.047   0.007  -0.001  -0.018   0.021   0.063  -0.030  -0.051   0.121   0.005   0.008  -0.006
  0.012  -0.136  -0.066   0.215  -0.035   0.040  -0.110   0.024  -0.365   0.011   0.175   0.231  -0.091  -0.068   0.004   0.020
 -0.001   0.289   0.040  -0.038   0.310  -0.016   0.015  -0.161   0.022  -0.166  -0.093  -0.049   0.110  -0.001  -0.027  -0.016
  0.004  -0.007   0.153   0.022   0.006  -0.057  -0.002  -0.004   0.074  -0.143  -0.047   0.019   0.067   0.011  -0.027  -0.006
  0.039  -0.475  -0.036   0.106  -0.027   0.025  -0.025   0.015  -0.214  -0.007  -0.668   0.227  -0.068  -0.041   0.000  -0.113
  0.006   0.067   0.006   0.043   0.172  -0.004  -0.010  -0.071   0.105   0.031  -0.102  -0.121   0.090   0.017   0.002  -0.016
 -0.003   0.083   0.237  -0.060   0.030  -0.119   0.027  -0.013   0.118   0.015  -0.032  -0.255   0.050   0.024   0.004  -0.004
  0.005  -0.061   0.036  -0.004  -0.056  -0.009   0.001   0.021  -0.022  -0.076   0.032   0.062  -0.136  -0.006  -0.009   0.007
 total augmentation occupancy for first ion, spin component:           2
 -0.002  -0.003  -0.000   0.000  -0.000  -0.000  -0.000  -0.000   0.001  -0.000  -0.000  -0.000   0.001   0.001  -0.000   0.000
 -0.003   0.010  -0.001   0.001  -0.001   0.000  -0.000  -0.000   0.004  -0.003  -0.004  -0.002   0.003  -0.001   0.000   0.000
 -0.000  -0.001   0.000   0.000  -0.000  -0.001  -0.000   0.000   0.000  -0.000  -0.000   0.000  -0.000  -0.000  -0.000   0.000
  0.000   0.001   0.000   0.000   0.000  -0.000  -0.001  -0.000   0.001   0.000  -0.001   0.000   0.000   0.000   0.000  -0.000
 -0.000  -0.001  -0.000   0.000  -0.000   0.000  -0.000  -0.000  -0.000   0.000  -0.000   0.000   0.000  -0.000   0.000   0.000
 -0.000   0.000  -0.001  -0.000   0.000   0.000   0.000  -0.000  -0.000   0.000  -0.000  -0.000  -0.000   0.000  -0.000  -0.000
 -0.000  -0.000  -0.000  -0.001  -0.000   0.000   0.000   0.000  -0.000   0.000   0.000  -0.000  -0.000  -0.000   0.000   0.000
 -0.000  -0.000   0.000  -0.000  -0.000  -0.000   0.000  -0.000  -0.000  -0.000   0.000  -0.000  -0.000   0.000  -0.000  -0.000
  0.001   0.004   0.000   0.001  -0.000  -0.000  -0.000  -0.000   0.004   0.000  -0.005   0.000   0.003  -0.001   0.000   0.000
 -0.000  -0.003  -0.000   0.000   0.000   0.000   0.000  -0.000   0.000  -0.002   0.000   0.001   0.002   0.000  -0.001  -0.000
 -0.000  -0.004  -0.000  -0.001  -0.000  -0.000   0.000   0.000  -0.005   0.000  -0.001  -0.000  -0.002   0.000  -0.000  -0.001
 -0.000  -0.002   0.000   0.000   0.000  -0.000  -0.000  -0.000   0.000   0.001  -0.000  -0.000  -0.001   0.000   0.000  -0.000
  0.001   0.003  -0.000   0.000   0.000  -0.000  -0.000  -0.000   0.003   0.002  -0.002  -0.001  -0.000  -0.000   0.000   0.000
  0.001  -0.001  -0.000   0.000  -0.000   0.000  -0.000   0.000  -0.001   0.000   0.000   0.000  -0.000  -0.000   0.000   0.000
 -0.000   0.000  -0.000   0.000   0.000  -0.000   0.000  -0.000   0.000  -0.001  -0.000   0.000   0.000   0.000  -0.000  -0.000
  0.000   0.000   0.000  -0.000   0.000  -0.000   0.000  -0.000   0.000  -0.000  -0.001  -0.000   0.000   0.000  -0.000  -0.000
  0.000  -0.000   0.000  -0.000  -0.000  -0.000   0.000  -0.000   0.000  -0.000  -0.000  -0.001   0.000   0.000  -0.000  -0.000
  0.000  -0.000  -0.000   0.000  -0.000   0.000  -0.000   0.000  -0.000   0.000   0.000   0.000  -0.001  -0.000   0.000   0.000
  0.003  -0.008  -0.008   0.005  -0.015   0.002  -0.001   0.003  -0.008   0.004   0.002   0.007  -0.006  -0.004   0.000   0.003
 -0.002   0.003   0.001  -0.002   0.009  -0.001   0.001  -0.002   0.006   0.000  -0.004  -0.004   0.004   0.002  -0.001  -0.001
 -0.001   0.001   0.001  -0.001   0.002  -0.000   0.000  -0.000  -0.002  -0.002   0.000  -0.004  -0.001   0.001  -0.000  -0.001
  0.002  -0.004  -0.004   0.004  -0.006   0.001  -0.001   0.002  -0.007   0.002   0.002   0.003  -0.004  -0.002   0.000   0.001
 -0.001   0.004   0.003  -0.002   0.007  -0.000   0.001  -0.001   0.002  -0.003   0.002  -0.005   0.001   0.002  -0.000  -0.002
 -0.000  -0.000   0.002  -0.001   0.003  -0.000   0.000  -0.001   0.004   0.000  -0.001   0.001   0.000   0.001  -0.000  -0.000
  0.000  -0.000  -0.000   0.001  -0.002  -0.000   0.000   0.000   0.001   0.001  -0.000  -0.001   0.002   0.000  -0.000   0.000
 -0.003   0.002   0.006  -0.005   0.012  -0.001   0.001  -0.002   0.000  -0.004   0.002  -0.006   0.004   0.004  -0.000  -0.003
  0.002   0.001   0.000  -0.000  -0.007   0.000  -0.000   0.001  -0.003  -0.003   0.002   0.002  -0.003  -0.002   0.001   0.001
  0.001  -0.002  -0.002   0.002  -0.004   0.000  -0.000   0.000   0.002   0.002  -0.000   0.005   0.002  -0.001   0.000   0.001
 -0.002   0.001   0.003  -0.003   0.005  -0.000   0.001  -0.001   0.003  -0.003   0.002  -0.001   0.003   0.002  -0.000  -0.001
  0.002  -0.002  -0.004   0.002  -0.007   0.000  -0.001   0.001   0.002   0.005  -0.005   0.005   0.002  -0.002   0.000   0.002
  0.000  -0.000  -0.003   0.001  -0.003   0.000  -0.000   0.000  -0.003  -0.001   0.001  -0.001   0.002  -0.001   0.000   0.000
 -0.000   0.000   0.001  -0.001   0.001   0.000  -0.000   0.000  -0.001  -0.002  -0.000   0.001  -0.005  -0.000   0.000  -0.000


------------------------ aborting loop EDIFF was not reached (unconverged)  ----------------------------


 -----------------------------------------------------------------------------
|                                                                             |
|           W    W    AA    RRRRR   N    N  II  N    N   GGGG   !!!           |
|           W    W   A  A   R    R  NN   N  II  NN   N  G    G  !!!           |
|           W    W  A    A  R    R  N N  N  II  N N  N  G       !!!           |
|           W WW W  AAAAAA  RRRRR   N  N N  II  N  N N  G  GGG   !            |
|           WW  WW  A    A  R   R   N   NN  II  N   NN  G    G                |
|           W    W  A    A  R    R  N    N  II  N    N   GGGG   !!!           |
|                                                                             |
|     The electronic self-consistency was not achieved in the given           |
|     number of steps (NELM). The forces and other quantities evaluated       |
|     might not be reliable so examine the results carefully. If you find     |
|     spurious results, we suggest increasing NELM, if you were close to      |
|     convergence or switching to a different ALGO or adjusting the           |
|     density mixing parameters otherwise.                                    |
|                                                                             |
 -----------------------------------------------------------------------------

    CHARGE:  cpu time      0.2657: real time      0.2658
    FORLOC:  cpu time      0.0148: real time      0.0148
    FORNL :  cpu time      1.3810: real time      1.3813
    STRESS:  cpu time      4.2652: real time      4.2669
    FORCOR:  cpu time      0.0543: real time      0.0543
    FORHAR:  cpu time      0.0200: real time      0.0199
    MIXING:  cpu time      0.0061: real time      0.0061
    OFIELD:  cpu time      0.0001: real time      0.0001

 ---------------------------------------------------------------------------------------------

         DFTD3 V3.0 Rev 1        
 Edisp (eV)  -21.86111

 E6    (eV) :   -12.5271
 E8    (eV) :    -9.3340
 % E8        : 42.70
    FORVDW:  cpu time      1.9748: real time      1.9752

  FORCE on cell =-STRESS in cart. coord.  units (eV):
  Direction    XX          YY          ZZ          XY          YZ          ZX
  --------------------------------------------------------------------------------------
  Alpha Z  2397.92105  2397.92105  2397.92105
  Ewald  178399.81002182243.91128************ -2275.00517   308.77717 -1170.11486
  Hartree202877.18557206885.57521************ -2525.30027   103.73264  -975.74843
  E(xc)   -5537.16248 -5534.74030 -5546.74381     0.88549    -0.10628    -4.03698
  Local  ************************382192.93002  4786.83543  -299.21842  2110.20668
  n-local  -599.97583  -607.00581  -585.29302   -20.33675     6.72665    17.52998
  augment  -107.78161  -101.28983   -90.24666     1.67618    -8.26584    -2.76992
  Kinetic 23298.96552 23225.90689 23456.95853     5.90018   -36.16556    53.82760
  Fock        0.00000     0.00000     0.00000     0.00000     0.00000     0.00000
  vdW       -22.29817   -22.11507   -16.11221    -0.00763    -0.11986     0.07978
  -------------------------------------------------------------------------------------
  Total     216.69685    24.23065   359.02571   -25.35253    75.36050    28.97384
  in kB      79.64473     8.90573   131.95626    -9.31807    27.69799    10.64904
  external pressure =       73.50 kB  Pullay stress =        0.00 kB

  kinetic pressure (ideal gas correction) =     51.22 kB
  total pressure  =    124.72 kB
  Total+kin.   127.632      76.013     170.529      27.469      59.379      24.713

 VOLUME and BASIS-vectors are now :
 -----------------------------------------------------------------------------
  energy-cutoff  :      520.00
  volume of cell :     4359.19
      direct lattice vectors                 reciprocal lattice vectors
    15.464300000  0.000000000  0.000000000     0.064665067  0.037334394  0.000000000
    -7.732150000 13.392476650  0.000000000     0.000000000  0.074668788  0.000000000
     0.000000000  0.000000000 21.048200000     0.000000000  0.000000000  0.047510001

  length of vectors
    15.464300000 15.464299998 21.048200000     0.074668788  0.074668788  0.047510001


 FORCES acting on ions
    electron-ion (+dipol)            ewald-force                    non-local-force                 convergence-correction
 -----------------------------------------------------------------------------------------------
   0.163E+02 0.807E+02 -.115E+04   -.118E+02 -.812E+02 0.114E+04   0.286E+01 0.931E+00 0.200E+01   -.686E+01 -.928E+00 0.686E+01
   0.445E+02 0.464E+02 0.137E+04   -.402E+02 -.469E+02 -.137E+04   0.180E+00 -.133E+00 -.389E+00   -.464E+01 0.818E+00 -.392E+01
   0.147E+03 0.191E+03 -.813E+03   -.147E+03 -.195E+03 0.808E+03   0.440E+00 0.170E+01 0.112E+01   -.723E+00 0.100E+01 0.278E+01
   -.702E+01 0.374E+02 0.141E+04   0.651E+01 -.343E+02 -.140E+04   -.357E-01 -.190E+00 -.138E-01   0.394E+00 -.242E+01 -.355E+01
   0.318E+02 -.907E+02 -.700E+03   -.311E+02 0.919E+02 0.697E+03   -.127E+01 0.131E+01 0.154E+01   0.735E+00 -.291E+01 0.150E+01
   -.394E+02 -.195E+02 0.135E+04   0.355E+02 0.169E+02 -.134E+04   -.779E-01 -.241E-01 0.115E+01   0.395E+01 0.251E+01 -.264E+01
   -.173E+03 -.877E+02 -.879E+03   0.166E+03 0.910E+02 0.875E+03   -.170E+01 0.721E+00 0.152E+01   0.772E+01 -.476E+01 0.377E+01
   -.363E+01 -.505E+01 0.134E+04   0.343E+01 -.569E+00 -.133E+04   -.573E-01 0.158E+00 0.609E+00   0.438E+00 0.489E+01 -.102E+02
   0.713E+02 0.221E+02 -.110E+04   -.727E+02 -.200E+02 0.109E+04   -.105E+01 0.610E+00 0.285E+01   0.295E+01 -.277E+01 0.170E+01
   0.414E+02 0.178E+02 0.137E+04   -.376E+02 -.139E+02 -.137E+04   -.229E+00 0.346E-01 -.157E+00   -.325E+01 -.404E+01 -.246E+01
   0.280E+03 0.667E+02 -.751E+03   -.281E+03 -.702E+02 0.742E+03   -.235E+00 0.755E-01 0.971E+00   -.191E+00 0.322E+01 0.415E+01
   0.756E+00 -.351E+01 0.138E+04   0.126E+01 0.224E+01 -.139E+04   0.115E+00 -.677E-01 0.115E+01   -.226E+01 0.125E+01 0.458E+01
   -.959E+02 -.298E+01 -.555E+03   0.107E+03 -.133E+01 0.547E+03   -.408E+01 0.161E+01 0.512E+00   -.783E+01 0.165E+01 0.457E+01
   -.657E+02 -.426E+02 0.137E+04   0.631E+02 0.422E+02 -.137E+04   0.209E+00 0.238E+00 0.353E+00   0.205E+01 -.203E+00 -.773E+01
   -.161E+03 -.108E+03 -.985E+03   0.156E+03 0.112E+03 0.982E+03   -.994E+00 0.139E+01 0.240E+01   0.500E+01 -.583E+01 -.102E-02
   -.339E+01 0.127E+01 0.134E+04   -.265E+00 0.285E+01 -.134E+04   -.188E-01 0.522E-01 -.212E+00   0.359E+01 -.396E+01 -.560E+01
   0.113E+03 0.325E+01 -.112E+04   -.117E+03 -.649E+01 0.112E+04   -.177E+01 0.971E+00 0.334E+01   0.518E+01 0.248E+01 0.127E+01
   0.454E+02 0.394E+01 0.134E+04   -.444E+02 -.222E+01 -.134E+04   -.322E-01 0.456E-01 0.797E+00   -.922E+00 -.170E+01 -.325E+01
   0.121E+03 0.115E+03 -.839E+03   -.124E+03 -.115E+03 0.833E+03   0.619E-01 0.175E+01 0.210E+01   0.388E+01 -.159E+01 0.244E+01
   0.823E+01 -.128E+01 0.137E+04   -.642E+01 0.455E+01 -.138E+04   -.140E+00 -.891E-01 0.424E+00   -.151E+01 -.304E+01 0.105E+02
   -.357E+02 -.154E+03 -.681E+03   0.357E+02 0.152E+03 0.675E+03   0.118E+01 0.237E+00 0.139E+01   -.147E+01 0.308E+01 0.509E+01
   -.462E+02 -.255E+02 0.135E+04   0.451E+02 0.266E+02 -.136E+04   0.271E+00 -.246E+00 0.299E-01   0.542E+00 -.515E+00 0.308E+01
   -.224E+03 -.118E+03 -.932E+03   0.229E+03 0.113E+03 0.922E+03   0.899E+00 -.228E+01 0.262E+01   -.696E+01 0.811E+01 0.569E+01
   -.684E+01 -.272E+01 0.132E+04   0.506E+01 0.250E+01 -.132E+04   -.909E-01 -.912E-01 0.375E+00   0.199E+01 0.428E+00 -.661E+01
   0.709E+02 -.257E+02 -.115E+04   -.665E+02 0.256E+02 0.114E+04   0.219E+00 0.186E+01 0.208E+01   -.377E+01 0.128E+00 0.579E+01
   0.333E+02 0.273E+02 0.134E+04   -.336E+02 -.271E+02 -.133E+04   0.260E-01 -.861E-01 0.644E+00   0.182E+00 -.171E+00 -.447E+01
   0.178E+03 0.705E+02 -.776E+03   -.181E+03 -.675E+02 0.773E+03   0.296E+01 -.144E+01 0.351E+00   0.515E+00 -.696E+00 0.199E+01
   0.251E+02 0.427E+01 0.135E+04   -.219E+02 -.531E+01 -.135E+04   -.167E+00 0.120E+00 0.153E+01   -.269E+01 0.767E+00 -.170E+00
   -.124E+03 -.139E+02 -.640E+03   0.119E+03 0.156E+02 0.634E+03   -.145E+01 0.246E+01 0.728E+00   0.732E+01 -.327E+01 0.419E+01
   -.353E+02 -.224E+02 0.133E+04   0.332E+02 0.193E+02 -.135E+04   -.952E-01 0.375E-01 0.586E-01   0.259E+01 0.297E+01 0.169E+02
   -.183E+03 -.108E+03 -.109E+04   0.186E+03 0.106E+03 0.108E+04   0.749E+00 0.863E+00 0.288E+01   -.407E+01 0.230E+01 0.104E+02
   -.135E+02 -.333E+01 0.132E+04   0.128E+02 0.152E+01 -.132E+04   0.221E+00 -.871E-01 -.581E+00   0.153E+00 0.206E+01 -.127E+01
   -.146E+03 -.240E+03 -.154E+04   0.145E+03 0.241E+03 0.153E+04   0.544E+00 -.786E+00 -.158E+00   0.275E+01 -.206E+01 0.554E+01
   0.229E+03 0.214E+03 -.128E+04   -.234E+03 -.217E+03 0.126E+04   -.297E+01 -.163E+01 -.528E+01   0.660E+00 -.284E+00 0.335E+01
   -.281E+03 -.387E+03 -.128E+04   0.299E+03 0.406E+03 0.128E+04   0.463E+01 -.177E+01 -.148E+01   0.111E+00 0.265E+01 0.305E+01
   0.423E+03 0.190E+03 -.995E+03   -.506E+03 -.188E+03 0.796E+03   -.154E+02 0.490E+01 -.444E+02   -.392E+01 0.133E+01 0.373E+01
   0.173E+02 0.122E+02 0.984E+03   -.138E+02 -.113E+02 -.987E+03   0.503E+00 0.330E+00 0.757E+01   -.389E+01 -.117E+01 -.478E+01
   0.754E+02 0.653E+02 -.128E+03   -.736E+02 -.667E+02 0.127E+03   -.417E+00 -.397E+00 0.441E+00   -.152E+01 0.129E+01 0.135E+01
   0.141E+03 0.720E+02 -.825E+03   -.142E+03 -.722E+02 0.830E+03   0.760E+00 0.268E+00 -.696E+01   0.209E+00 -.670E+00 0.241E+01
   0.575E+01 0.159E+02 0.367E+03   -.394E+01 -.181E+02 -.367E+03   0.592E-01 -.218E-01 0.109E+01   -.179E+01 0.219E+01 -.795E+00
   0.129E+02 0.151E+02 0.125E+04   -.950E+01 -.145E+02 -.126E+04   0.803E-01 0.975E-01 0.116E+02   -.349E+01 -.672E+00 -.537E+01
   0.383E+03 0.387E+03 -.916E+03   -.397E+03 -.412E+03 0.917E+03   0.168E+02 0.247E+02 -.419E+01   -.315E+01 0.110E+01 0.291E+01
   0.971E+01 0.130E+02 0.998E+03   -.844E+01 -.114E+02 -.100E+04   -.482E-01 -.903E-01 0.760E+01   -.122E+01 -.152E+01 -.182E+01
   -.117E+02 0.621E+02 -.538E+02   0.114E+02 -.624E+02 0.533E+02   0.244E+01 0.365E+00 0.715E+00   -.116E+01 -.802E+00 0.707E+00
   0.938E+02 0.108E+03 -.430E+03   -.891E+02 -.110E+03 0.425E+03   -.362E+01 0.232E+01 0.435E+01   -.197E+01 0.161E+01 0.203E+01
   0.240E+02 0.348E+02 0.417E+03   -.232E+02 -.339E+02 -.417E+03   -.408E+00 -.958E+00 0.115E+01   -.488E+00 -.366E+00 -.742E+00
   0.213E+01 0.130E+02 0.125E+04   -.289E+01 -.133E+02 -.126E+04   0.645E+00 0.103E+01 0.113E+02   0.122E+00 -.779E+00 -.507E+01
   -.191E+02 -.543E+00 0.993E+03   0.178E+02 0.850E+00 -.997E+03   0.414E+00 -.832E-01 0.800E+01   0.108E+01 -.262E+00 -.332E+01
   -.543E+02 -.393E+02 -.142E+03   0.532E+02 0.391E+02 0.143E+03   -.142E+01 0.172E+01 -.668E+00   0.227E+01 -.120E+01 -.207E+00
   -.150E+03 0.101E+02 -.656E+03   0.151E+03 -.105E+02 0.662E+03   -.131E+01 0.138E+01 -.635E+01   -.178E+00 -.142E+01 0.157E+01
   -.742E+01 0.557E+01 0.423E+03   0.730E+01 -.530E+01 -.423E+03   -.333E+00 -.727E-01 0.116E+01   0.309E+00 -.268E+00 -.640E+00
   -.140E+02 -.672E+01 0.125E+04   0.123E+02 0.407E+01 -.126E+04   -.108E+00 0.226E-01 0.119E+02   0.172E+01 0.264E+01 -.455E+01
   -.285E+03 -.331E+03 -.102E+04   0.301E+03 0.355E+03 0.102E+04   -.199E+02 -.206E+02 0.107E+01   0.285E+01 -.159E+01 0.390E+01
   -.880E+01 -.403E+01 0.980E+03   0.521E+01 0.432E+01 -.983E+03   -.846E+00 0.409E+00 0.764E+01   0.424E+01 -.635E+00 -.438E+01
   -.308E+02 -.172E+02 -.187E+03   0.310E+02 0.193E+02 0.185E+03   0.169E+00 0.809E+00 0.113E+01   0.235E+00 -.182E+01 0.131E+01
   -.687E+02 -.799E+02 -.792E+03   0.656E+02 0.815E+02 0.799E+03   0.106E+01 0.238E+01 -.920E+01   0.220E+01 -.241E+01 0.172E+01
   -.145E+02 -.142E+02 0.399E+03   0.122E+02 0.116E+02 -.401E+03   0.146E+00 0.252E+00 0.508E+00   0.201E+01 0.246E+01 0.133E+01
   -.209E+00 -.199E+01 0.125E+04   -.151E+01 -.164E+00 -.125E+04   0.955E-01 -.337E+00 0.108E+02   0.158E+01 0.255E+01 -.395E+01
   0.165E+02 0.364E+01 0.982E+03   -.163E+02 -.202E+01 -.986E+03   -.181E+00 0.250E+00 0.745E+01   -.105E+00 -.176E+01 -.260E+01
   0.400E+02 0.278E+02 -.147E+03   -.399E+02 -.286E+02 0.147E+03   -.504E+00 0.146E+01 0.813E+00   0.113E+01 -.812E-01 0.540E+00
   0.914E+02 0.874E+02 -.766E+03   -.950E+02 -.886E+02 0.771E+03   -.238E-01 0.920E+00 -.546E+01   0.274E+01 -.477E+00 0.182E+01
   0.213E+02 0.106E+02 0.386E+03   -.211E+02 -.879E+01 -.385E+03   -.126E+01 -.425E+00 0.250E+01   0.393E+00 -.162E+01 -.309E+01
   0.218E+02 0.111E+02 0.125E+04   -.191E+02 -.757E+01 -.125E+04   0.234E+00 -.612E-01 0.113E+02   -.289E+01 -.349E+01 -.403E+01
   0.138E+02 0.400E+01 0.984E+03   -.114E+02 -.121E+01 -.993E+03   -.363E+00 -.123E+00 0.824E+01   -.219E+01 -.273E+01 0.132E+01
   -.393E+01 -.769E+01 -.352E+02   0.715E+01 0.143E+01 0.291E+02   -.564E-01 -.209E+00 0.260E+01   -.209E+01 0.538E+01 0.411E+01
   0.122E+03 0.274E+01 -.630E+03   -.125E+03 -.397E+01 0.638E+03   -.240E+01 -.109E+01 -.797E+01   0.421E+01 0.173E+01 -.115E-01
   0.293E+02 0.104E+02 0.419E+03   -.275E+02 -.109E+02 -.421E+03   0.415E+00 0.650E+00 0.536E+00   -.198E+01 0.200E+00 0.947E+00
   -.288E+01 0.764E+01 0.124E+04   0.425E+01 -.804E+01 -.124E+04   -.138E+01 0.194E+01 0.111E+02   0.909E-01 -.145E+01 -.474E+01
   -.150E+03 0.530E+02 -.729E+03   0.159E+03 -.616E+02 0.727E+03   -.799E+01 0.823E+01 0.265E+01   -.268E+01 0.137E+01 0.203E+01
   -.176E+02 -.122E+02 0.988E+03   0.164E+02 0.119E+02 -.994E+03   0.164E+00 0.454E-01 0.759E+01   0.104E+01 0.230E+00 -.167E+01
   -.119E+03 -.798E+02 -.789E+02   0.122E+03 0.801E+02 0.781E+02   -.636E+00 0.145E+01 0.194E+01   -.132E+01 0.496E+00 0.164E-01
   -.129E+03 -.160E+03 -.438E+03   0.133E+03 0.155E+03 0.428E+03   0.286E+01 0.229E+01 0.725E+01   -.531E+01 0.411E+01 0.120E+01
   0.133E+00 -.109E+02 0.445E+03   0.126E+01 0.107E+02 -.444E+03   -.546E+00 0.571E+00 -.127E+01   -.143E+01 -.341E-01 -.560E+00
   -.202E+02 -.103E+02 0.124E+04   0.191E+02 0.112E+02 -.125E+04   -.381E+00 -.908E+00 0.114E+02   0.150E+01 0.631E-01 -.539E+01
   -.102E+02 -.899E+01 0.975E+03   0.894E+01 0.879E+01 -.979E+03   -.137E+00 0.234E+00 0.786E+01   0.130E+01 0.693E-01 -.421E+01
   -.817E+01 -.915E+00 -.188E+03   0.600E+01 0.299E+01 0.190E+03   -.141E+00 -.738E+00 0.153E+01   0.263E+01 -.193E+01 -.226E+01
   -.926E+02 -.651E+02 -.848E+03   0.923E+02 0.643E+02 0.854E+03   -.101E+00 0.664E+00 -.111E+02   -.277E-01 0.920E+00 0.361E+01
   -.254E+02 -.126E+02 0.390E+03   0.223E+02 0.141E+02 -.388E+03   0.977E-01 -.174E+00 0.211E+01   0.286E+01 -.148E+01 -.294E+01
   -.103E+01 -.586E-01 0.125E+04   -.628E+00 0.196E+01 -.126E+04   -.112E+00 -.356E-01 0.116E+02   0.177E+01 -.187E+01 -.417E+01
   0.109E+02 0.373E+01 0.977E+03   -.107E+02 -.318E+01 -.981E+03   -.846E-01 -.489E-01 0.755E+01   -.844E-01 -.516E+00 -.386E+01
   0.617E+02 0.890E+01 -.144E+03   -.623E+02 -.757E+01 0.143E+03   -.140E+01 -.672E+00 0.108E+01   0.163E+01 -.225E+00 0.255E+00
   0.127E+03 0.652E+02 -.825E+03   -.126E+03 -.674E+02 0.831E+03   0.299E+00 -.353E+00 -.785E+01   -.742E+00 0.121E+01 0.231E+01
   0.136E+02 -.543E+01 0.375E+03   -.150E+02 0.555E+01 -.373E+03   0.132E+00 0.622E+00 0.155E+01   0.134E+01 -.354E+00 -.270E+01
   0.184E+02 0.344E+01 0.124E+04   -.165E+02 -.249E+01 -.125E+04   0.519E-01 -.391E-01 0.120E+02   -.193E+01 -.920E+00 -.430E+01
   0.401E+03 0.314E+03 -.971E+03   -.767E+03 -.356E+03 0.114E+04   0.595E+02 0.231E+02 -.226E+02   -.962E+00 -.179E+01 0.298E+01
   0.182E+02 -.233E+01 0.985E+03   -.143E+02 0.221E+01 -.992E+03   -.424E+00 0.222E+00 0.751E+01   -.364E+01 -.111E-01 0.325E-01
   0.970E+01 0.334E+02 -.760E+02   -.149E+02 -.328E+02 0.714E+02   0.745E+00 0.571E+00 0.622E+00   0.426E+01 -.225E+01 0.406E+01
   0.829E+02 0.932E+02 -.473E+03   -.824E+02 -.918E+02 0.462E+03   -.217E+01 -.736E+00 0.107E+02   0.143E+01 -.995E+00 0.165E+00
   0.241E+02 0.428E+01 0.413E+03   -.234E+02 -.242E+01 -.415E+03   -.394E+00 -.751E+00 0.163E+01   -.443E+00 -.127E+01 0.134E+01
   0.741E+01 -.742E+01 0.124E+04   -.596E+01 0.109E+02 -.124E+04   0.889E+00 -.131E+01 0.114E+02   -.220E+01 -.215E+01 -.431E+01
   -.146E+02 -.777E+01 0.981E+03   0.124E+02 0.113E+02 -.993E+03   0.848E-01 -.468E+00 0.776E+01   0.216E+01 -.329E+01 0.415E+01
   -.511E+02 -.355E+02 -.138E+03   0.543E+02 0.298E+02 0.132E+03   0.247E+01 -.153E+01 -.144E-01   -.482E+01 0.591E+01 0.717E+01
   -.139E+03 -.311E+02 -.644E+03   0.134E+03 0.305E+02 0.651E+03   -.207E+01 0.349E+00 -.572E+01   0.648E+01 -.307E+00 0.914E-01
   -.112E+02 -.152E+02 0.416E+03   0.120E+02 0.157E+02 -.424E+03   -.456E+00 -.175E+00 0.552E+00   -.524E+00 -.415E+00 0.762E+01
   -.205E+02 -.108E+02 0.125E+04   0.171E+02 0.121E+02 -.125E+04   -.487E-01 0.911E-02 0.117E+02   0.338E+01 -.131E+01 -.540E+01
   -.251E+03 -.436E+03 -.917E+03   0.258E+03 0.455E+03 0.919E+03   -.893E+01 -.222E+02 -.328E+01   0.531E+00 0.257E+01 0.165E+01
   -.144E+02 -.573E+01 0.975E+03   0.126E+02 0.627E+01 -.980E+03   0.302E+00 -.312E+00 0.756E+01   0.161E+01 -.357E+00 -.278E+01
   -.100E+02 0.137E+02 -.204E+03   0.120E+02 -.162E+02 0.203E+03   -.127E+01 -.143E+01 0.215E+01   -.100E+01 0.258E+01 0.564E+00
   -.408E+02 -.628E+02 -.810E+03   0.457E+02 0.582E+02 0.815E+03   0.316E+01 -.209E+01 -.621E+01   -.770E+01 0.492E+01 0.228E+01
   -.334E+02 -.141E+02 0.377E+03   0.330E+02 0.128E+02 -.377E+03   0.107E+01 -.256E+00 0.249E+01   -.265E+00 0.135E+01 -.101E+01
   -.455E+01 -.333E+01 0.125E+04   0.388E+01 0.354E+01 -.125E+04   -.432E-01 -.500E-01 0.118E+02   0.712E+00 -.144E+00 -.559E+01
   0.922E+01 0.120E+02 0.977E+03   -.920E+01 -.127E+02 -.981E+03   0.248E+00 -.216E+00 0.737E+01   -.171E+00 0.854E+00 -.351E+01
   0.700E+02 0.333E+02 -.165E+03   -.703E+02 -.330E+02 0.163E+03   0.794E-01 0.132E+00 -.249E+00   -.181E+00 -.390E+00 0.803E+00
   0.140E+03 0.108E+03 -.828E+03   -.139E+03 -.110E+03 0.834E+03   0.102E+01 0.120E+01 -.877E+01   -.245E+01 -.311E+00 0.291E+01
   0.504E+01 -.797E+00 0.369E+03   -.527E+01 0.116E+01 -.370E+03   0.697E-01 -.449E+00 0.716E+00   0.287E+00 -.343E-02 -.327E+00
   0.109E+02 0.749E+01 0.125E+04   -.103E+02 -.735E+01 -.126E+04   -.756E-02 0.318E-01 0.121E+02   -.661E+00 -.160E+00 -.514E+01
   0.812E+01 0.124E+02 0.989E+03   -.748E+01 -.120E+02 -.994E+03   0.811E-01 -.237E+00 0.749E+01   -.692E+00 -.252E+00 -.274E+01
   0.453E+02 0.938E+01 -.682E+02   -.471E+02 -.947E+01 0.665E+02   -.153E+00 0.694E+00 0.816E-01   0.829E+00 -.751E+00 0.117E+01
   0.796E+02 0.121E+02 -.625E+03   -.773E+02 -.106E+02 0.631E+03   -.158E+01 -.586E+00 -.770E+01   -.132E+00 -.424E+00 0.134E+01
   0.163E+02 0.754E+01 0.396E+03   -.161E+02 -.737E+01 -.395E+03   0.360E+00 0.287E+00 0.411E+00   -.179E+00 -.299E+00 -.552E+00
   0.855E+01 -.350E+01 0.124E+04   -.542E+01 0.230E+01 -.125E+04   -.344E-01 -.132E-01 0.121E+02   -.310E+01 0.120E+01 -.428E+01
   -.164E+03 0.497E+02 -.827E+03   0.166E+03 -.607E+02 0.822E+03   -.518E+01 0.952E+01 0.423E+01   0.314E+01 0.815E+00 0.163E+01
   -.471E+01 -.977E+01 0.986E+03   0.795E+01 0.606E+01 -.994E+03   -.330E+00 0.845E-01 0.767E+01   -.297E+01 0.358E+01 0.873E+00
   -.679E+02 -.162E+02 -.138E+03   0.604E+02 0.191E+02 0.131E+03   -.564E+00 0.996E+00 -.385E+00   0.715E+01 -.349E+01 0.678E+01
   -.114E+03 -.978E+02 -.505E+03   0.111E+03 0.101E+03 0.495E+03   0.905E+00 -.142E+01 0.594E+01   0.230E+01 -.190E+01 0.229E+01
   -.457E+01 -.141E+02 0.424E+03   0.460E+01 0.146E+02 -.427E+03   0.411E+00 0.197E+00 -.141E+01   -.284E+00 -.454E+00 0.444E+01
   -.155E+02 -.112E+02 0.125E+04   0.106E+02 0.834E+01 -.125E+04   0.220E+01 -.533E+00 0.101E+02   0.216E+01 0.364E+01 -.441E+01
   -.140E+02 -.821E+01 0.975E+03   0.976E+01 0.192E+01 -.982E+03   0.157E+00 -.585E+00 0.819E+01   0.422E+01 0.677E+01 -.112E+01
   -.948E+01 -.165E+02 -.222E+03   0.161E+02 0.187E+02 0.217E+03   0.843E+00 0.674E+00 -.258E+00   -.698E+01 -.220E+01 0.599E+01
   -.128E+03 0.267E+02 -.858E+03   0.127E+03 -.242E+02 0.865E+03   0.190E+01 0.309E+01 -.916E+01   -.111E+00 -.570E+01 0.173E+01
   -.260E+02 -.168E+02 0.376E+03   0.258E+02 0.165E+02 -.385E+03   -.909E-01 -.703E-01 -.223E+00   0.138E+00 0.396E+00 0.991E+01
   -.673E+01 -.967E+00 0.125E+04   0.510E+01 -.140E+01 -.125E+04   -.747E-01 -.497E-01 0.117E+02   0.168E+01 0.242E+01 -.681E+01
   0.269E+03 -.235E+03 -.792E+03   -.303E+03 0.243E+03 0.789E+03   0.292E+02 -.680E+01 0.423E+01   -.588E+00 0.184E+01 -.305E+01
   0.367E+03 -.129E+03 -.888E+03   -.383E+03 0.151E+03 0.883E+03   0.151E+02 -.222E+02 0.238E+01   -.320E+00 0.828E-01 0.201E+01
   0.228E+03 -.147E+03 -.868E+03   -.256E+03 0.145E+03 0.858E+03   0.245E+02 0.468E+01 0.997E+01   0.168E+01 -.125E+01 0.257E+01
   -.171E+03 -.104E+03 -.112E+04   0.174E+03 0.114E+03 0.115E+04   -.691E+01 -.107E+02 -.302E+02   0.405E+01 -.164E+01 0.477E+01
   -.874E+02 -.763E+02 -.123E+04   0.118E+03 0.111E+03 0.129E+04   -.219E+02 -.232E+02 -.413E+02   0.174E+01 0.120E+01 0.464E+01
   -.881E+02 -.115E+03 -.119E+04   0.799E+02 0.109E+03 0.122E+04   0.508E+01 0.569E+01 -.335E+02   0.292E+01 -.333E-02 0.417E+01
   -.549E+03 -.133E+03 -.933E+03   0.604E+03 0.192E+03 0.954E+03   -.371E+02 -.373E+02 -.111E+02   -.923E+00 0.287E+01 0.512E+01
   -.196E+03 0.248E+03 -.892E+03   0.222E+03 -.265E+03 0.888E+03   -.280E+02 0.140E+02 0.241E+01   0.232E+01 -.753E+00 0.526E+00
   -.447E+03 0.808E+02 -.993E+03   0.467E+03 -.889E+02 0.989E+03   -.238E+02 0.867E+01 0.156E+01   0.331E+01 -.162E+01 0.199E+01
   0.402E+03 -.129E+03 -.866E+03   -.403E+03 0.167E+03 0.868E+03   -.944E+00 -.351E+02 -.471E+01   -.135E+01 0.189E+00 0.152E+01
   0.336E+02 0.116E+03 -.137E+04   0.582E+02 -.877E+02 0.168E+04   -.212E+02 -.722E+01 -.800E+02   -.255E+01 0.134E+01 0.307E+01
   -.275E+03 0.408E+03 -.774E+03   0.327E+03 -.442E+03 0.743E+03   -.397E+02 0.234E+02 0.237E+02   -.245E+01 0.452E+00 0.180E+01
   0.121E+02 0.310E+02 -.430E+03   -.292E+02 -.505E+02 0.427E+03   0.112E+02 0.172E+02 0.762E+00   0.724E+01 0.392E+01 0.296E+01
   -.140E+03 0.924E+02 -.483E+03   0.133E+03 -.125E+03 0.430E+03   0.109E+02 0.286E+02 0.387E+02   -.224E+01 0.480E+01 0.773E+01
   -.165E+03 -.164E+03 -.375E+03   0.178E+03 0.174E+03 0.369E+03   -.979E+01 -.766E+01 0.474E+01   -.440E+01 -.327E+01 0.228E+01
   0.167E+03 -.617E+02 -.488E+03   -.175E+03 0.630E+02 0.485E+03   0.615E+01 -.849E+00 0.794E+00   0.316E+01 -.518E+00 0.309E+01
   0.435E+01 0.519E+02 -.410E+03   0.230E+01 -.538E+02 0.412E+03   -.429E+01 -.267E+01 -.719E+01   -.312E+01 0.385E+01 0.276E+01
   -.961E+02 0.151E+02 -.486E+03   0.956E+02 -.247E+02 0.481E+03   0.154E+01 0.103E+02 0.924E+00   -.536E+00 0.191E+01 0.447E+01
   0.234E+02 0.577E+02 -.452E+02   -.241E+02 -.676E+02 0.409E+02   0.126E+01 0.104E+02 0.516E+01   -.334E+00 0.165E+01 0.409E+00
   0.216E+03 -.899E+02 -.956E+03   -.230E+03 0.750E+02 0.973E+03   0.146E+02 0.214E+02 -.214E+02   0.275E+00 -.245E+01 0.319E+01
   -.375E+02 0.105E+03 -.116E+04   0.360E+02 -.117E+03 0.117E+04   0.311E+01 0.161E+02 -.138E+02   0.149E+00 0.429E+00 0.596E+01
   0.121E+03 0.174E+03 -.628E+03   -.125E+03 -.183E+03 0.630E+03   0.708E+01 0.181E+02 -.884E+01   -.162E+01 -.332E+01 0.319E+01
   -.133E+03 -.263E+03 -.779E+03   0.130E+03 0.263E+03 0.775E+03   -.277E+01 -.239E+01 -.138E+01   0.484E+01 0.252E+01 0.626E+01
   -.227E+03 0.529E+02 -.961E+03   0.229E+03 -.605E+02 0.960E+03   -.454E+01 0.102E+02 -.463E+01   0.162E+01 -.131E+00 0.485E+01
   0.133E+03 -.768E+02 -.685E+03   -.254E+03 0.191E+03 0.804E+03   0.282E+02 -.315E+02 -.258E+02   0.552E+00 -.165E+01 0.852E+01
   -.296E+02 0.341E+02 -.841E+03   -.834E+01 -.738E+02 0.802E+03   0.233E+02 0.343E+02 0.284E+02   0.155E+01 -.769E+00 0.609E+01
   0.747E+02 0.797E+02 -.303E+03   -.533E+02 -.933E+02 0.275E+03   -.161E+02 0.279E+02 0.237E+02   -.853E+01 -.104E+02 0.735E+01
   0.154E+03 0.128E+03 -.764E+03   -.157E+03 -.150E+03 0.790E+03   0.791E+01 0.235E+02 -.375E+02   -.603E+01 0.241E+01 0.613E+01
   0.178E+02 0.207E+02 0.566E+02   -.189E+02 -.207E+02 -.535E+02   -.164E+00 -.508E+00 -.232E+00   0.137E+01 0.434E+00 -.300E+01
   0.650E+02 0.622E+02 -.714E+03   -.576E+02 -.765E+02 0.700E+03   -.510E+01 0.178E+02 0.957E+01   -.291E+01 -.136E+01 0.461E+01
   0.201E+03 0.987E+02 -.696E+03   -.184E+03 -.123E+03 0.705E+03   -.137E+02 0.305E+02 -.161E+02   -.269E+01 -.367E+01 0.475E+01
   -.108E+03 -.515E+02 -.680E+02   0.118E+03 0.298E+02 0.342E+02   -.135E+02 0.174E+02 0.289E+02   0.459E+01 0.294E+01 -.898E-01
   -.159E+01 -.251E+02 -.278E+02   0.627E+00 0.259E+02 0.289E+02   -.135E-01 -.722E-01 -.509E-01   0.847E+00 -.633E+00 -.967E+00
   0.532E+01 -.614E+02 -.555E+02   -.699E+01 0.642E+02 0.532E+02   0.755E-01 -.256E+01 0.835E+00   0.177E+01 -.178E+01 0.146E+01
   -.281E+02 -.131E+02 -.153E+03   0.264E+02 0.148E+02 0.173E+03   0.314E+00 -.332E+01 -.102E+02   -.912E+00 0.866E+00 0.164E+00
   -.523E+02 -.388E+02 -.871E+02   0.552E+02 0.415E+02 0.833E+02   -.129E+01 -.263E+01 -.523E+00   -.158E+01 0.340E+00 0.884E+00
   -.196E+02 0.920E+01 -.721E+02   0.198E+02 -.949E+01 0.720E+02   -.123E+00 0.389E+00 -.995E+00   -.279E+00 0.945E+00 -.214E+01
   0.132E+02 -.218E+02 -.888E+02   -.119E+02 0.224E+02 0.895E+02   -.530E+00 -.454E+00 0.126E+00   -.327E+00 0.374E+00 0.770E-01
   -.368E+01 0.119E+01 0.158E+03   0.352E+01 -.125E+01 -.157E+03   -.100E-02 -.435E-03 -.229E-01   0.110E+00 0.737E-01 -.951E+00
   0.326E+02 0.333E+02 -.731E+02   -.315E+02 -.338E+02 0.728E+02   0.365E+00 -.583E+00 0.103E+00   -.271E+00 0.725E+00 0.107E+01
   0.586E+01 0.237E+00 0.394E+02   -.564E+01 -.306E+00 -.387E+02   0.613E-02 0.669E-01 -.160E-01   -.191E+00 0.977E-01 -.823E+00
   0.235E+01 -.278E+02 -.367E+02   -.276E+01 0.272E+02 0.362E+02   -.137E+00 -.108E+00 -.578E-01   -.125E+00 -.378E+00 -.196E+00
   0.263E+02 0.342E+02 -.851E+02   -.255E+02 -.333E+02 0.835E+02   -.151E+00 0.643E+00 -.451E+00   -.275E+00 0.989E-01 0.784E+00
   -.319E+02 -.314E+02 -.820E+02   0.297E+02 0.286E+02 0.815E+02   -.381E+00 -.437E+00 0.531E-01   0.564E+00 0.893E+00 0.787E+00
   0.124E+02 -.823E+01 0.256E+02   -.139E+02 0.109E+02 -.223E+02   0.247E+00 -.117E+00 -.271E+00   0.217E+01 -.361E+01 -.413E+01
   0.547E+01 -.115E+01 -.202E+02   -.302E+01 0.516E+01 0.205E+02   -.368E+00 -.314E+00 -.135E+00   -.317E+01 -.594E+01 -.111E+01
   0.118E+03 0.421E+02 -.152E+03   -.124E+03 -.453E+02 0.152E+03   0.420E+01 0.345E+01 0.627E-01   -.185E+00 0.184E-01 0.444E+00
   -.159E+01 -.859E+02 -.114E+03   0.103E+01 0.868E+02 0.113E+03   -.197E+01 -.380E+01 0.327E+01   0.473E+00 0.571E+00 -.584E+00
   -.511E+02 0.539E+02 -.102E+03   0.377E+03 -.347E+02 -.582E+02   -.202E+02 -.294E+01 0.959E+01   -.665E-01 -.331E+00 0.380E+00
   0.379E+02 0.192E+02 -.130E+03   -.670E+02 -.444E+02 0.122E+03   0.543E+01 0.514E+01 0.191E+01   -.192E+00 0.112E+00 0.188E+00
   0.363E+02 0.107E+02 -.989E+02   -.353E+02 -.129E+02 0.989E+02   0.305E+00 -.383E+00 0.552E+00   -.438E+00 0.183E+00 0.598E+00
   -.392E+01 0.999E+01 -.106E+03   0.242E+01 -.118E+02 0.108E+03   -.953E+00 -.724E+00 0.957E+00   -.812E-01 -.133E+00 0.320E+00
   -.514E+02 0.864E+02 -.965E+02   0.375E+02 -.131E+03 0.706E+02   0.565E+01 0.165E+02 0.826E+01   -.253E+00 0.437E+00 0.653E+00
   0.734E+02 0.130E+02 -.166E+03   -.736E+02 -.135E+02 0.166E+03   0.579E+00 0.179E+00 -.553E+00   -.220E+00 -.150E+00 0.591E+00
   -.401E+02 0.974E+02 -.194E+03   0.747E+02 -.130E+03 0.210E+03   -.270E+01 0.358E+01 -.535E+01   -.495E+00 0.225E+00 0.405E+00
   -.601E+02 0.258E+02 -.175E+03   0.621E+02 -.296E+02 0.178E+03   0.245E+00 0.705E+00 -.600E+00   -.231E+00 0.907E+00 0.738E+00
   0.260E+02 0.799E+01 -.121E+03   -.261E+02 -.478E+01 0.117E+03   -.221E+00 0.567E+00 -.309E+00   0.170E+00 -.191E+01 0.171E+01
   -.531E+02 0.598E+02 -.430E+02   0.161E+03 -.154E+03 -.770E+02   -.154E+02 0.135E+02 0.176E+02   0.458E-01 -.174E+00 0.108E+01
   -.192E+01 -.207E+02 -.147E+03   0.102E+01 0.187E+02 0.144E+03   0.475E+00 -.791E+00 -.973E+00   -.976E-01 -.519E-01 0.114E+01
   -.717E+02 -.519E+02 -.183E+03   0.946E+02 0.699E+02 0.196E+03   -.961E+01 -.878E+01 -.716E+01   0.818E-01 -.200E+00 0.970E+00
   0.579E+02 -.323E+02 -.508E+02   -.637E+02 0.343E+02 0.450E+02   0.402E+01 -.186E+01 0.778E+00   -.733E+00 -.186E+01 0.724E+00
   0.907E+01 -.396E+02 -.834E+02   -.382E+00 0.418E+02 0.887E+02   -.223E+01 -.227E+01 -.425E+01   -.852E+00 -.161E+01 0.527E+00
   0.689E+02 -.206E+02 -.111E+03   -.716E+02 0.204E+02 0.112E+03   0.192E+01 -.190E+01 0.144E+01   -.602E+00 -.877E-02 0.753E+00
   0.607E+01 0.259E+02 -.655E+02   -.522E+01 -.262E+02 0.646E+02   0.196E+01 0.122E+01 -.364E+00   0.277E+00 0.984E+00 0.656E+00
   0.233E+01 -.849E+00 0.167E+03   -.214E+01 0.129E+01 -.165E+03   0.117E-01 0.482E-02 0.130E-01   -.567E-01 -.440E+00 -.149E+01
   -.152E+02 0.256E+02 -.692E+02   0.132E+02 -.281E+02 0.689E+02   -.193E+01 -.118E+01 0.392E+00   0.475E+00 0.165E+01 0.526E+00
   0.657E+00 -.372E+01 -.106E+03   0.487E+01 0.328E+01 0.103E+03   -.304E+01 -.187E+01 0.428E+01   -.640E+00 0.440E+00 0.665E+00
   0.595E+01 -.223E+02 -.121E+03   -.503E+01 0.178E+02 0.122E+03   0.806E+00 -.333E+01 0.457E+00   -.109E+01 0.266E+01 0.595E+00
   0.848E+02 -.308E+02 -.120E+03   -.853E+02 0.330E+02 0.119E+03   0.425E+01 -.342E+01 -.730E+00   -.837E+00 -.671E+00 0.745E+00
   0.238E+02 0.331E+01 -.104E+03   -.255E+02 -.294E+01 0.107E+03   -.119E+01 -.166E+00 0.148E+01   -.261E+00 -.414E+00 0.522E+00
   0.181E+02 -.447E+02 -.158E+02   -.256E+02 0.543E+02 0.206E+02   0.277E+01 -.387E+01 -.280E+01   0.589E+00 0.190E+00 -.556E+00
   0.107E+02 -.358E+02 -.547E+02   -.808E+01 0.301E+02 0.626E+02   -.236E+00 0.690E+00 -.395E+01   0.678E+00 0.320E+00 -.471E+00
 -----------------------------------------------------------------------------------------------
   0.721E+02 -.193E+03 -.250E+03   0.129E-11 -.806E-12 -.390E-11   -.718E+02 0.198E+03 0.891E+02   -.925E+00 -.525E+01 0.158E+03
 
 
 POSITION                                       TOTAL-FORCE (eV/Angst)
 -----------------------------------------------------------------------------------
     15.43409      0.03121      7.55973         0.412454     -0.452172     -0.875727
      1.93311      1.11600      4.37403        -0.095601      0.187416     -0.728579
     -3.92509     13.33521      7.52007         0.354046     -0.644482     -0.676163
      5.79919      1.11600      4.37403        -0.154485      0.518148     -0.427000
      7.71709      0.02859      7.55456         0.207509     -0.409758     -0.110146
      9.66526      1.11600      4.37403        -0.048722     -0.191835     -0.309935
     11.72131      0.00979      7.52900        -1.051643     -0.706433      0.457060
     13.53134      1.11600      4.37403         0.186871     -0.564979     -1.078502
     13.48740      3.31563      7.48573         0.501262     -0.097385     -0.579685
      0.00008      4.46411      4.37403         0.324033     -0.080370     -1.088775
      1.91468      3.35296      7.57425        -1.737458     -0.161684     -3.326032
      3.86615      4.46411      4.37403        -0.125694     -0.088417     -1.174000
      5.88775      3.32372      7.62032        -0.531414     -1.048670     -2.771593
      7.73223      4.46411      4.37403        -0.353032     -0.397123     -0.948802
      9.74091      3.32791      7.53330        -0.611088     -0.513807     -0.375962
     11.59830      4.46411      4.37403        -0.076489      0.208396     -1.604264
     -3.84188      6.69844      7.55296        -0.030381      0.220719     -0.899071
     -1.93296      7.81223      4.37403         0.058497      0.066618     -0.430129
     -0.05205      6.57264      7.51872         1.040549      0.674656     -1.234106
      1.93311      7.81223      4.37403         0.158947      0.145567     -1.132939
      3.80128      6.69891      7.56062        -0.336924      1.141397      0.247962
      5.79919      7.81223      4.37403        -0.301741      0.328251     -0.607315
      7.79857      6.74870      7.57016        -0.605107      0.270158     -1.224481
      9.66526      7.81223      4.37403         0.107261      0.121881     -0.918664
      9.63856      9.99757      7.54296         0.905295      1.912999     -0.987287
     -3.86600     11.16035      4.37403        -0.053556     -0.066189     -0.176551
     -1.99684     10.04682      7.61003         0.010431      0.868363     -0.108856
      0.00008     11.16035      4.37403         0.396753     -0.149788     -0.017718
      2.00272      9.99273      7.61063         0.554205      0.862216     -0.991479
      3.86615     11.16035      4.37403         0.438959     -0.109866     -1.583248
      5.81427     10.04610      7.54842        -0.640499      0.640200     -0.681580
      7.73223     11.16035      4.37403        -0.336826      0.160293     -0.630205
      1.87760     12.22552     10.54260         1.777104     -1.038659     -1.841540
     -0.06336      8.96014     10.53744        -7.681897     -4.719124    -24.643983
      5.66950      5.65780     10.56288        22.355939     20.570434      1.545341
      3.84048      2.31109     10.55162      -102.252079      8.098450   -239.713524
     -0.00008      2.23212      3.58493         0.106006      0.065231     -0.119150
      1.88183      1.19461      6.62647        -0.113850     -0.481597      1.234392
      0.01331      2.37930      8.32073        -0.328276     -0.601588      0.296986
      0.00000      0.00000      5.16312         0.075831     -0.032489      0.435894
      1.93311      1.11600      2.00652        -0.032650      0.045609      0.039567
      2.64466      0.85968     10.86071        -0.649087      1.040148     -0.646618
      3.86600      2.23212      3.58493         0.008955     -0.009118     -0.006232
      5.69100      1.25120      6.66779         0.900702     -0.725692      0.821821
      3.83320      2.06816      8.23938        -0.970449      1.754007      1.240389
      3.86607      0.00000      5.16312        -0.106639     -0.390593      0.333308
      5.79919      1.11600      2.00652         0.004877     -0.002887     -0.182188
      7.73207      2.23212      3.58493         0.156828     -0.037993      0.072155
      9.67712      1.08205      6.82677        -0.253837      0.350231     -0.625630
      7.78324      2.32105      8.20795         0.216940     -0.416585      0.762558
      7.73215      0.00000      5.16312        -0.144397     -0.074738      0.655224
      9.66526      1.11600      2.00652        -0.015462      0.020395      0.222349
     10.95319      0.10974     10.33804        -1.015478      1.295547      1.067016
     11.59815      2.23212      3.58493        -0.197087      0.064075     -0.049263
     13.54829      1.05026      6.65057         0.566919      1.074838      0.645504
     11.64728      2.17059      8.22306         0.211721      1.548953     -0.071467
     11.59822      0.00000      5.16312        -0.164469      0.092941      0.085208
     13.53134      1.11600      2.00652        -0.039235      0.063138     -0.338181
     -1.93311      5.58024      3.58493        -0.053380      0.112353     -0.105199
     -0.13629      4.36320      6.61778         0.730559      0.518963      1.096139
     -1.93289      5.60083      8.10376        -0.861276     -0.704774      1.108894
     -1.93304      3.34812      5.16312        -0.653586     -0.231173      0.520831
      0.00008      4.46411      2.00652         0.027994     -0.001282      0.003550
      1.93296      5.58024      3.58493        -0.146758     -0.062168      0.292499
      3.75376      4.53607      6.78379         1.074893     -1.088355      0.619478
      1.85319      5.61336      8.19746        -0.957424     -0.585198      0.064714
      1.93304      3.34812      5.16312         0.191769      0.348308      0.351991
      3.86615      4.46411      2.00652         0.080299      0.078956      0.173252
      5.40479      3.61469      9.78823        -1.113959      0.978639      2.220533
      5.79904      5.58024      3.58493         0.020800     -0.022693     -0.046754
      7.54241      4.30733      6.63205         1.849616      2.178834      1.100695
      5.87527      5.64257      8.50359         1.552452      1.256224     -1.320905
      5.79911      3.34812      5.16312        -0.589756      0.273183     -0.198363
      7.73223      4.46411      2.00652        -0.008399      0.020471     -0.133058
      9.66511      5.58024      3.58493        -0.092320      0.100142      0.007036
     11.49455      4.58112      6.59611         0.316591     -0.596122      1.854842
      9.74530      5.46659      8.48601        -0.462703      0.788018     -1.194110
      9.66519      3.34812      5.16312        -0.108126     -0.161979      0.810929
     11.59830      4.46411      2.00652        -0.001710     -0.002632      0.079516
     -3.86615      8.92836      3.58493        -0.039150     -0.021428     -0.055569
     -1.93006      7.78846      6.73736        -0.348603      0.439319      0.447267
     -3.90465      9.06658      8.32990         0.086521     -1.400091      0.299587
     -3.86607      6.69624      5.16312         0.084675      0.384686      0.581381
     -1.93296      7.81223      2.00652         0.016235     -0.004416      0.060866
     -1.35525      7.54150     10.70732      -307.396405    -20.843658    150.221275
     -0.00008      8.92836      3.58493        -0.177915      0.088756      0.019172
      1.81445      7.95187      6.73385        -0.183719     -1.123400      0.056167
     -0.07795      8.78963      8.49125        -0.280606     -0.359658      0.216647
      0.00000      6.69624      5.16312        -0.100571     -0.162429      0.532540
      1.93311      7.81223      2.00652         0.144725     -0.022877      0.330056
      3.86600      8.92836      3.58493         0.021683     -0.209953      0.227662
      5.82656      7.85809      6.65276         0.819057     -1.379752      0.972348
      3.86583      8.95195      8.09652        -0.083878     -0.540726      0.813598
      3.86607      6.69624      5.16312        -0.186047     -0.059430      0.338001
      5.79919      7.81223      2.00652        -0.037655     -0.008395      0.102946
      6.28101      7.48032     10.77383        -1.356100     -0.669136      0.041618
      7.73207      8.92836      3.58493         0.114512     -0.129481     -0.058996
      9.72457      7.87655      6.64922        -0.281963     -1.377500      1.472200
      7.78942      9.01550      8.16310         0.419502     -1.816429      0.915808
      7.73215      6.69624      5.16312         0.418856     -0.210334      1.270075
      9.66526      7.81223      2.00652        -0.004227      0.021472     -0.303488
     -5.79919     12.27648      3.58493         0.099750     -0.089606     -0.109582
     -3.87790     11.10186      6.75656        -0.364519      0.061533     -0.639905
     -5.70018     12.32728      8.32735        -1.065846     -0.259428     -0.206102
     -5.79911     10.04436      5.16312         0.124180     -0.084377      0.205416
     -3.86600     11.16035      2.00652        -0.006744      0.010508      0.036848
     -1.93311     12.27648      3.58493         0.037158     -0.080074     -0.087611
      0.22531     11.21311      6.90021        -1.050774     -0.142909     -0.468787
     -2.05515     12.22932      8.14382         0.553854      0.573361     -0.057294
     -1.93304     10.04436      5.16312         0.297753      0.164457      0.696476
      0.00008     11.16035      2.00652        -0.000217     -0.001387      0.191036
      1.48744     10.37557      9.83816         0.428127     -0.631708      0.623884
      1.93296     12.27648      3.58493        -0.057696     -0.051190     -0.038376
      3.93358     11.20415      6.75766        -0.898566      0.375931     -0.316631
      2.03219     12.50249      8.51632         1.197340     -0.314668     -2.255838
      1.93304     10.04436      5.16312         0.155127      0.235492     -0.161670
      3.86615     11.16035      2.00652        -0.545222      0.276376      0.860327
      5.79904     12.27648      3.58493         0.156889     -0.097381      0.303417
      7.73738     11.14768      6.61062         0.462825      0.744801      1.218418
      5.84277     12.43429      8.33180         1.038308     -0.086278      0.113817
      5.79911     10.04436      5.16312        -0.141591      0.007269     -0.208406
      7.73223     11.16035      2.00652        -0.027909      0.004700      0.034399
      3.99268      5.99691     10.06429        -5.349095      2.976385     -1.755101
     -1.30824     10.21006     10.08406        -1.821204     -0.325737     -0.351429
      0.28019     12.31403      9.69790        -1.990521      1.523068      2.241363
      5.35580      5.11942     12.15623        -0.329410     -2.602910      7.223919
      0.47064      9.58154     11.70364        10.113874     13.017924     26.953014
      1.60364     11.93577     12.24591        -0.234857      0.388494      0.001360
      7.31275      4.97118     10.46149        16.880194     23.894937     15.405396
      1.39632      7.94310     10.35984         0.505567     -3.050170     -0.932035
      3.72181     11.67115     10.29545        -0.653490     -1.091963      0.143303
      2.61632      3.53090     10.03845        -3.753997      2.975644     -1.656250
      4.16414      2.37826     11.53901        68.013758     22.183326    234.432894
      5.19331      1.37298     10.19036         9.930867     -9.482404     -5.311181
      6.62044      5.33375     15.64582         1.365599      1.525700      1.342973
      9.37085      4.30268     14.35326         1.879478      0.402679     -6.752516
      8.41363      6.51625     15.64048        -0.436640     -1.390243      1.284702
     -1.59030      9.71114     15.84475         2.010801     -0.033783      1.070634
      0.10709      8.42658     16.22047        -0.757051     -0.726792     -2.052576
      1.93477      7.90549     15.13204         0.540926      2.643981      0.382312
      6.63048     12.92163     16.96074         0.177987      2.161597      1.239449
      3.78627      6.07062     12.77100         0.603524      4.016998     -1.757998
      4.87427      3.64632     12.60042         1.712009      3.893180     -0.336966
     -0.30175      5.61943     13.83618         1.408340      5.398677     -2.805318
      4.97263      7.82784     13.53979        -0.228290     -0.142239      0.102014
      7.73495      2.14165     11.69273        -1.054889      2.495083     -0.962807
     -1.29657      9.77161     13.85961       -92.631626     81.126546    101.430616
     11.87644      3.19443     11.53222       -13.076373     -6.194265     -4.064709
      0.60594      1.82263     15.66460        -3.181339      3.945927      3.134524
      2.62010      1.13440     13.97678        -0.574953      3.729696     -4.437945
      3.92898      4.29197     17.92178         0.048174     -0.004636     -0.165359
     -3.37674     12.34942     13.65915        -0.582208      2.126332      0.022622
     -4.00521      9.47317     12.95774         0.445967      2.769521     -2.444504
      2.47328     11.17646     16.84937         0.968747     -1.302129     -4.982772
      6.69374      7.41766     17.12993        -0.131152      0.056488      0.109905
      7.02520      6.46751     15.38458         0.173188     -1.573807     -0.047668
      9.40753      4.65569     15.15672        -2.316019     -0.788819     10.023629
      9.85703      5.42366     14.91889         0.138706      0.573447     -3.433067
      7.78171      5.57308     16.84883        -0.159788      1.032019     -3.165954
      3.51627      3.98128      8.86353         0.491763      0.511461      0.877553
      7.11395      2.54208      0.10034        -0.046781      0.009261      0.266635
     -1.00724      8.11439     15.02179         1.200299     -0.282676      0.847805
     -0.21627      9.18796     18.89632         0.034817      0.098421     -0.189553
     -0.38851     11.00067     16.96839        -0.664361     -1.081167     -0.832426
     -0.71005      6.70831     15.49453         0.413447      1.651509     -1.297693
      3.17922      9.31796     14.91366        -1.998137     -2.380976      0.353356
     13.60581      0.82436     18.27887         0.897373     -1.044142     -1.126887
     -0.29762      1.11247     17.29187        -1.089528     -2.241309     -0.881234
      1.80094      2.87144     10.06010        -1.850014      0.249795      0.951186
      4.19192      6.82789     12.08931        -2.069495     -2.244743      2.477010
     -0.97841      7.57170     10.52415       305.793851     15.936810   -150.620447
      4.85942      4.95956     10.32188       -23.886162    -19.895460     -6.525957
     -0.98713      7.14712     13.88554         0.898626     -2.388892      1.156006
      0.59749      6.39583     12.88954        -2.533906     -2.645252      3.349068
      7.09257      4.35169     10.15326        -8.543505    -28.048830    -16.994092
      1.04101      2.56757     11.09005         0.175773     -0.441637     -0.204866
      4.62346      1.69530     10.95404        31.371953    -28.585688     11.253787
      7.14713      3.70864     11.10596         1.909143     -2.240897      2.483565
     -3.08926     10.86598     14.32843        -0.153403      1.869311     -1.929807
     -0.99328      9.50397     13.52234        92.154427    -81.011072   -101.384585
     11.41995      4.20420     12.68749        -0.526413     -2.809864     -2.670118
     12.40770      3.66327     11.90988        13.392901      9.010418      6.716451
     -0.25302      2.71495     16.08861        -2.593487     -1.779393     -4.205604
      0.43549      2.60238     16.45790         5.607449     -1.680998      1.505416
      2.11605      1.98729     13.13003        -1.371888     -2.040073      2.966551
      5.26401      3.06704     15.96906         3.085818      1.908344     -0.573213
      2.70641      5.90208      0.38037         0.142832      0.004246      0.510582
      6.13236      3.62705     15.79871        -3.436699     -2.073409      0.602283
      3.05592      1.58602     13.12432         1.885331     -1.881112      1.483147
      4.05341      0.11192     13.55879         0.620409     -5.073382      1.650722
     -4.83807     10.16973     13.05475         2.908341     -1.868082     -1.187757
     -3.19042      9.70378     11.79607        -3.203446     -0.206577      4.156910
      1.81580     12.05639     17.91874        -4.124528      5.877501      1.517049
      2.16084     11.57358     17.62765         3.017059     -4.652426      3.482271
 -----------------------------------------------------------------------------------
    total drift:                               -0.615270     -0.717702     -3.120746


--------------------------------------------------------------------------------------------------------



  FREE ENERGIE OF THE ION-ELECTRON SYSTEM (eV)
  ---------------------------------------------------
  free  energy   TOTEN  =      -967.88131111 eV

  energy  without entropy=     -967.82093973  energy(sigma->0) =     -967.85112542
 
 d Force =-0.2817565E+03[-0.755E+03, 0.192E+03]  d Energy =-0.2466614E+03-0.351E+02
 d Force =-0.3924100E+04[-0.104E+05, 0.257E+04]  d Ewald  =-0.5995161E+04 0.207E+04


--------------------------------------------------------------------------------------------------------


    POTLOK:  cpu time      1.0273: real time      1.0278


--------------------------------------------------------------------------------------------------------


           RANDOM_SEED =         485797559                0                0
   IONSTEP:  cpu time      0.0003: real time      0.0003

  ENERGY OF THE ELECTRON-ION-THERMOSTAT SYSTEM (eV)
  ---------------------------------------------------
% ion-electron   TOTEN  =      -967.881311  see above
  kinetic energy EKIN   =     76991.542004
  kin. lattice  EKIN_LAT=         0.000000  (temperature******** K)
  nose potential ES     =         0.000000
  nose kinetic   EPS    =         0.000000
  ---------------------------------------------------
  total energy   ETOTAL =     76023.660693 eV

  maximum distance moved by ions :      0.83E+02


 mean value of Nose-termostat <S>:     1.000 mean value of <T> :**********
 mean temperature <T/S>/<1/S>  :**********

 Prediction of Wavefunctions ALPHA= 0.753 BETA= 0.000
    WAVPRE:  cpu time      0.5272: real time      0.6618
    FEWALD:  cpu time      0.0031: real time      0.0031
