Generated by VASPKIT code
 1.000000
   15.4642999999999997    0.0000000000000000    0.0000000000000000
   -7.7321499999999999   13.3924766500000008    0.0000000000000000
    0.0000000000000000    0.0000000000000000   21.0482000000000014
   Ce   Ir   O    H 
    32     4   118    40
Selective Dynamics
Direct
    0.0009100000000000    0.9997500000000000    0.3585400000000000    T  T  T    Ce001
    0.1666700000000000    0.0833300000000000    0.2078100000000000    F  F  F    Ce002
    0.2451700000000000    0.9951700000000000    0.3573800000000000    T  T  T    Ce003
    0.4166700000000000    0.0833300000000000    0.2078100000000000    F  F  F    Ce004
    0.4970500000000000    0.0016900000000000    0.3600600000000000    T  T  T    Ce005
    0.6666700000000000    0.0833300000000000    0.2078100000000000    F  F  F    Ce006
    0.7565900000000000    0.0032000000000000    0.3580600000000000    T  T  T    Ce007
    0.9166700000000000    0.0833300000000000    0.2078100000000000    F  F  F    Ce008
    0.9992300000000000    0.2497800000000000    0.3583700000000000    T  T  T    Ce009
    0.1666700000000000    0.3333300000000000    0.2078100000000000    F  F  F    Ce010
    0.2473300000000000    0.2513400000000000    0.3606400000000000    T  T  T    Ce011
    0.4166700000000000    0.3333300000000000    0.2078100000000000    F  F  F    Ce012
    0.5029500000000000    0.2484000000000000    0.3620400000000000    T  T  T    Ce013
    0.6666700000000000    0.3333300000000000    0.2078100000000000    F  F  F    Ce014
    0.7510100000000000    0.2496800000000000    0.3580900000000000    T  T  T    Ce015
    0.9166700000000000    0.3333300000000000    0.2078100000000000    F  F  F    Ce016
    0.0010300000000000    0.4997900000000000    0.3585300000000000    T  T  T    Ce017
    0.1666700000000000    0.5833300000000000    0.2078100000000000    F  F  F    Ce018
    0.2449300000000000    0.4946000000000000    0.3572800000000000    T  T  T    Ce019
    0.4166700000000000    0.5833300000000000    0.2078100000000000    F  F  F    Ce020
    0.4968700000000000    0.5018600000000000    0.3598800000000000    T  T  T    Ce021
    0.6666700000000000    0.5833300000000000    0.2078100000000000    F  F  F    Ce022
    0.7570100000000000    0.5033300000000001    0.3579700000000000    T  T  T    Ce023
    0.9166700000000000    0.5833300000000000    0.2078100000000000    F  F  F    Ce024
    0.9991900000000000    0.7499400000000001    0.3583200000000000    T  T  T    Ce025
    0.1666700000000000    0.8333300000000000    0.2078100000000000    F  F  F    Ce026
    0.2470100000000000    0.7515800000000000    0.3603700000000000    T  T  T    Ce027
    0.4166700000000000    0.8333300000000000    0.2078100000000000    F  F  F    Ce028
    0.5031099999999999    0.7487500000000000    0.3620800000000000    T  T  T    Ce029
    0.6666700000000000    0.8333300000000000    0.2078100000000000    F  F  F    Ce030
    0.7509000000000000    0.7497300000000000    0.3581300000000000    T  T  T    Ce031
    0.9166700000000000    0.8333300000000000    0.2078100000000000    F  F  F    Ce032
    0.5795900000000000    0.9185400000000000    0.5014000000000000    T  T  T    Ir001
    0.3299800000000000    0.6708600000000000    0.5017700000000000    T  T  T    Ir002
    0.5783100000000000    0.4214600000000000    0.5022000000000000    T  T  T    Ir003
    0.3333200000000000    0.1693300000000000    0.5009600000000000    T  T  T    Ir004
    0.0833300000000000    0.1666700000000000    0.1703200000000000    F  F  F     O001
    0.1668900000000000    0.0837600000000000    0.3202800000000000    T  T  T     O002
    0.0831700000000000    0.1668100000000000    0.3958200000000000    T  T  T     O003
    0.0000000000000000    0.0000000000000000    0.2453000000000000    F  F  F     O004
    0.1666700000000000    0.0833300000000000    0.0953300000000000    F  F  F     O005
    0.2092300000000000    0.0689600000000000    0.5036900000000000    T  T  T     O006
    0.3333300000000000    0.1666700000000000    0.1703200000000000    F  F  F     O007
    0.4170100000000000    0.0868200000000000    0.3211600000000000    T  T  T     O008
    0.3249900000000000    0.1577800000000000    0.3989200000000000    T  T  T     O009
    0.2500000000000000    0.0000000000000000    0.2453000000000000    F  F  F     O010
    0.4166700000000000    0.0833300000000000    0.0953300000000000    F  F  F     O011
    0.5833300000000000    0.1666700000000000    0.1703200000000000    F  F  F     O012
    0.6672500000000000    0.0822500000000000    0.3201600000000000    T  T  T     O013
    0.5859100000000000    0.1657800000000000    0.3935100000000000    T  T  T     O014
    0.5000000000000000    0.0000000000000000    0.2453000000000000    F  F  F     O015
    0.6666700000000000    0.0833300000000000    0.0953300000000000    F  F  F     O016
    0.6787500000000000    0.0428700000000000    0.5055400000000000    T  T  T     O017
    0.8333300000000000    0.1666700000000000    0.1703200000000000    F  F  F     O018
    0.9183100000000000    0.0840700000000000    0.3196100000000000    T  T  T     O019
    0.8357800000000000    0.1679100000000000    0.3947200000000000    T  T  T     O020
    0.7500000000000000    0.0000000000000000    0.2453000000000000    F  F  F     O021
    0.9166700000000000    0.0833300000000000    0.0953300000000000    F  F  F     O022
    0.0833300000000000    0.4166700000000000    0.1703200000000000    F  F  F     O023
    0.1628500000000000    0.3305600000000000    0.3192000000000000    T  T  T     O024
    0.0811000000000000    0.4143300000000000    0.3947900000000000    T  T  T     O025
    0.0000000000000000    0.2500000000000000    0.2453000000000000    F  F  F     O026
    0.1666700000000000    0.3333300000000000    0.0953300000000000    F  F  F     O027
    0.3333300000000000    0.4166700000000000    0.1703200000000000    F  F  F     O028
    0.4202700000000000    0.3324600000000000    0.3249400000000000    T  T  T     O029
    0.3274300000000000    0.4170400000000000    0.3887900000000000    T  T  T     O030
    0.2500000000000000    0.2500000000000000    0.2453000000000000    F  F  F     O031
    0.4166700000000000    0.3333300000000000    0.0953300000000000    F  F  F     O032
    0.4761000000000000    0.2746100000000000    0.4715800000000000    T  T  T     O033
    0.5833300000000000    0.4166700000000000    0.1703200000000000    F  F  F     O034
    0.6664900000000000    0.3352500000000000    0.3218200000000000    T  T  T     O035
    0.5948300000000000    0.4274100000000000    0.4017200000000000    T  T  T     O036
    0.5000000000000000    0.2500000000000000    0.2453000000000000    F  F  F     O037
    0.6666700000000000    0.3333300000000000    0.0953300000000000    F  F  F     O038
    0.8333300000000000    0.4166700000000000    0.1703200000000000    F  F  F     O039
    0.9161600000000000    0.3329000000000000    0.3195100000000000    T  T  T     O040
    0.8376000000000000    0.4185600000000000    0.3943000000000000    T  T  T     O041
    0.7500000000000000    0.2500000000000000    0.2453000000000000    F  F  F     O042
    0.9166700000000000    0.3333300000000000    0.0953300000000000    F  F  F     O043
    0.0833300000000000    0.6666700000000000    0.1703200000000000    F  F  F     O044
    0.1671700000000000    0.5838400000000000    0.3203000000000000    T  T  T     O045
    0.0828800000000000    0.6667500000000000    0.3957900000000000    T  T  T     O046
    0.0000000000000000    0.5000000000000000    0.2453000000000000    F  F  F     O047
    0.1666700000000000    0.5833300000000000    0.0953300000000000    F  F  F     O048
    0.2057500000000000    0.5721900000000000    0.5078500000000000    T  T  T     O049
    0.3333300000000000    0.6666700000000000    0.1703200000000000    F  F  F     O050
    0.4163500000000000    0.5869000000000000    0.3214000000000000    T  T  T     O051
    0.3233300000000000    0.6564300000000000    0.4009000000000000    T  T  T     O052
    0.2500000000000000    0.5000000000000000    0.2453000000000000    F  F  F     O053
    0.4166700000000000    0.5833300000000000    0.0953300000000000    F  F  F     O054
    0.5833300000000000    0.6666700000000000    0.1703200000000000    F  F  F     O055
    0.6669900000000000    0.5817300000000000    0.3202900000000000    T  T  T     O056
    0.5854100000000000    0.6655000000000000    0.3934600000000000    T  T  T     O057
    0.5000000000000000    0.5000000000000000    0.2453000000000000    F  F  F     O058
    0.6666700000000000    0.5833300000000000    0.0953300000000000    F  F  F     O059
    0.6752000000000000    0.5461200000000000    0.5095200000000000    T  T  T     O060
    0.8333300000000000    0.6666700000000000    0.1703200000000000    F  F  F     O061
    0.9183500000000000    0.5841100000000000    0.3196200000000000    T  T  T     O062
    0.8354500000000000    0.6677100000000000    0.3948800000000000    T  T  T     O063
    0.7500000000000000    0.5000000000000000    0.2453000000000000    F  F  F     O064
    0.9166700000000000    0.5833300000000000    0.0953300000000000    F  F  F     O065
    0.0833300000000000    0.9166700000000000    0.1703200000000000    F  F  F     O066
    0.1628800000000000    0.8307000000000000    0.3191900000000000    T  T  T     O067
    0.0808400000000000    0.9141100000000000    0.3945100000000000    T  T  T     O068
    0.0000000000000000    0.7500000000000000    0.2453000000000000    F  F  F     O069
    0.1666700000000000    0.8333300000000000    0.0953300000000000    F  F  F     O070
    0.3333300000000000    0.9166700000000000    0.1703200000000000    F  F  F     O071
    0.4191800000000000    0.8312600000000000    0.3249600000000000    T  T  T     O072
    0.3279200000000000    0.9174600000000001    0.3885400000000000    T  T  T     O073
    0.2500000000000000    0.7500000000000000    0.2453000000000000    F  F  F     O074
    0.4166700000000000    0.8333300000000000    0.0953300000000000    F  F  F     O075
    0.4757300000000000    0.7747500000000000    0.4714900000000000    T  T  T     O076
    0.5833300000000000    0.9166700000000000    0.1703200000000000    F  F  F     O077
    0.6667300000000000    0.8348200000000000    0.3217100000000000    T  T  T     O078
    0.5938800000000000    0.9260500000000000    0.3998300000000000    T  T  T     O079
    0.5000000000000000    0.7500000000000000    0.2453000000000000    F  F  F     O080
    0.6666700000000000    0.8333300000000000    0.0953300000000000    F  F  F     O081
    0.8333300000000000    0.9166700000000000    0.1703200000000000    F  F  F     O082
    0.9159000000000000    0.8326500000000000    0.3194800000000000    T  T  T     O083
    0.8375700000000000    0.9184500000000000    0.3942900000000000    T  T  T     O084
    0.7500000000000000    0.7500000000000000    0.2453000000000000    F  F  F     O085
    0.9166700000000000    0.8333300000000000    0.0953300000000000    F  F  F     O086
    0.4857100000000000    0.4517900000000000    0.4758300000000000    T  T  T     O087
    0.2976000000000000    0.7627699999999999    0.4770200000000000    T  T  T     O088
    0.4873800000000000    0.9507400000000000    0.4770900000000000    T  T  T     O089
    0.5334500000000000    0.3837900000000000    0.5790000000000000    T  T  T     O090
    0.3661400000000000    0.7129799999999999    0.5792200000000000    T  T  T     O091
    0.5405600000000000    0.8852200000000000    0.5796100000000000    T  T  T     O092
    0.6577300000000000    0.3704100000000000    0.4931400000000000    T  T  T     O093
    0.3827000000000000    0.5932500000000001    0.4910600000000000    T  T  T     O094
    0.6571700000000000    0.8656300000000000    0.4902900000000000    T  T  T     O095
    0.2995000000000000    0.2611800000000000    0.4786600000000000    T  T  T     O096
    0.3653600000000000    0.2047500000000000    0.5798100000000000    T  T  T     O097
    0.3873000000000000    0.0932100000000000    0.4876700000000000    T  T  T     O098
    0.6185700000000000    0.3989900000000000    0.7439600000000000    T  T  T     O099
    0.7688500000000000    0.3191300000000000    0.6774100000000000    T  T  T     O100
    0.9172400000000001    0.5483200000000000    0.7439600000000000    T  T  T     O101
    0.0665800000000000    0.6229900000000000    0.7439600000000000    T  T  T     O102
    0.3180800000000000    0.6477000000000001    0.7499100000000000    T  T  T     O103
    0.4181600000000000    0.5557400000000000    0.6901500000000000    T  T  T     O104
    0.7992400000000000    0.8159400000000000    0.7372800000000000    T  T  T     O105
    0.4578800000000000    0.4722600000000000    0.6185100000000000    T  T  T     O106
    0.4044700000000000    0.2656100000000000    0.6593100000000000    T  T  T     O107
    0.1962200000000000    0.4243600000000000    0.6515200000000000    T  T  T     O108
    0.7168400000000000    0.7050800000000000    0.6901500000000000    T  T  T     O109
    0.5791800000000000    0.0850200000000000    0.5229200000000001    T  T  T     O110
    0.3005000000000000    0.7136200000000000    0.6593100000000000    T  T  T     O111
    0.8874600000000000    0.2404300000000000    0.5465900000000000    T  T  T     O112
    0.1119400000000000    0.1456700000000000    0.7439600000000000    T  T  T     O113
    0.2615300000000000    0.1189400000000000    0.6556100000000000    T  T  T     O114
    0.4106200000000000    0.2950100000000000    0.7439600000000000    T  T  T     O115
    0.2415800000000000    0.9470400000000000    0.6515200000000000    T  T  T     O116
    0.0883300000000000    0.6973400000000000    0.6166000000000000    T  T  T     O117
    0.5804800000000000    0.8407200000000000    0.8064300000000000    T  T  T     O118
    0.5956900000000001    0.4295500000000000    0.7749300000000000    T  T  T     H001
    0.6910800000000000    0.4380700000000000    0.7466500000000000    T  T  T     H002
    0.7459700000000000    0.3497000000000000    0.7083800000000000    T  T  T     H003
    0.8413600000000000    0.3582200000000000    0.6801000000000000    T  T  T     H004
    0.8943700000000000    0.5788900000000000    0.7749300000000000    T  T  T     H005
    0.9897600000000000    0.5874100000000000    0.7466500000000000    T  T  T     H006
    0.0437100000000000    0.6535600000000000    0.7749300000000000    T  T  T     H007
    0.1391000000000000    0.6620800000000000    0.7466500000000000    T  T  T     H008
    0.2952100000000000    0.6782700000000000    0.7808800000000000    T  T  T     H009
    0.3906000000000000    0.6867799999999999    0.7526000000000000    T  T  T     H010
    0.3952800000000000    0.5863100000000000    0.7211200000000000    T  T  T     H011
    0.4906700000000000    0.5948300000000000    0.6928400000000000    T  T  T     H012
    0.7763600000000001    0.8465100000000000    0.7682500000000000    T  T  T     H013
    0.8717500000000000    0.8550200000000000    0.7399700000000000    T  T  T     H014
    0.4350000000000000    0.5028200000000000    0.6494799999999999    T  T  T     H015
    0.5303900000000000    0.5113400000000000    0.6211900000000000    T  T  T     H016
    0.3816000000000000    0.2961800000000000    0.6902800000000000    T  T  T     H017
    0.4769800000000000    0.3047000000000000    0.6620000000000000    T  T  T     H018
    0.1733400000000000    0.4549300000000000    0.6824900000000000    T  T  T     H019
    0.2687300000000000    0.4634500000000000    0.6542100000000000    T  T  T     H020
    0.6939600000000000    0.7356500000000000    0.7211200000000000    T  T  T     H021
    0.7893500000000000    0.7441600000000000    0.6928400000000000    T  T  T     H022
    0.5563100000000000    0.1155900000000000    0.5538900000000000    T  T  T     H023
    0.6516999999999999    0.1241100000000000    0.5256100000000000    T  T  T     H024
    0.2776200000000000    0.7441900000000000    0.6902800000000000    T  T  T     H025
    0.3730100000000000    0.7527100000000000    0.6620000000000000    T  T  T     H026
    0.8645900000000000    0.2710000000000000    0.5775500000000000    T  T  T     H027
    0.9599800000000001    0.2795200000000000    0.5492700000000000    T  T  T     H028
    0.0890700000000000    0.1762400000000000    0.7749300000000000    T  T  T     H029
    0.1844600000000000    0.1847600000000000    0.7466500000000000    T  T  T     H030
    0.2386500000000000    0.1495100000000000    0.6865800000000000    T  T  T     H031
    0.3340400000000000    0.1580300000000000    0.6583000000000000    T  T  T     H032
    0.3877400000000000    0.3255800000000000    0.7749300000000000    T  T  T     H033
    0.4831300000000000    0.3340900000000000    0.7466500000000000    T  T  T     H034
    0.2187000000000000    0.9776100000000000    0.6824900000000000    T  T  T     H035
    0.3140900000000000    0.9861300000000000    0.6542100000000000    T  T  T     H036
    0.0654600000000000    0.7279099999999999    0.6475700000000000    T  T  T     H037
    0.1608500000000000    0.7364200000000000    0.6192800000000001    T  T  T     H038
    0.5576000000000000    0.8712900000000000    0.8374000000000000    T  T  T     H039
    0.6529900000000000    0.8798100000000000    0.8091200000000000    T  T  T     H040
