Elements in order:    Ce   Ir   O    H 
Cleaned carriage returns from POSCAR
Cleaned carriage returns from INCAR
Cleaned carriage returns from KPOINTS
Cleaned carriage returns from VASP.sbatch
Looking for: /scratch/liy0w/VASP/pot64/potpaw_PBE/Ce/POTCAR
Added POTCAR for Ce
Looking for: /scratch/liy0w/VASP/pot64/potpaw_PBE/Ir/POTCAR
Added POTCAR for Ir
Looking for: /scratch/liy0w/VASP/pot64/potpaw_PBE/O/POTCAR
Added POTCAR for O
Looking for: /scratch/liy0w/VASP/pot64/potpaw_PBE/H/POTCAR
Added POTCAR for H
The job 5471906 is running on nid00748
 running  192 mpi-ranks, on    1 nodes
 distrk:  each k-point on  192 cores,    1 groups
 distr:  one band on    4 cores,   48 groups
 vasp.6.4.3 19Mar24 (build Mar 01 2025 18:03:59) gamma-only                     
  
 POSCAR found type information on POSCAR CeIrO H 
 POSCAR found :  4 types and     194 ions
 Reading from existing POTCAR
 scaLAPACK will be used
 -----------------------------------------------------------------------------
|                                                                             |
|           W    W    AA    RRRRR   N    N  II  N    N   GGGG   !!!           |
|           W    W   A  A   R    R  NN   N  II  NN   N  G    G  !!!           |
|           W    W  A    A  R    R  N N  N  II  N N  N  G       !!!           |
|           W WW W  AAAAAA  RRRRR   N  N N  II  N  N N  G  GGG   !            |
|           WW  WW  A    A  R   R   N   NN  II  N   NN  G    G                |
|           W    W  A    A  R    R  N    N  II  N    N   GGGG   !!!           |
|                                                                             |
|     ISYM>0 for a molecular dynamics simmulation is not recommended.         |
|                                                                             |
 -----------------------------------------------------------------------------

 -----------------------------------------------------------------------------
|                                                                             |
|           W    W    AA    RRRRR   N    N  II  N    N   GGGG   !!!           |
|           W    W   A  A   R    R  NN   N  II  NN   N  G    G  !!!           |
|           W    W  A    A  R    R  N N  N  II  N N  N  G       !!!           |
|           W WW W  AAAAAA  RRRRR   N  N N  II  N  N N  G  GGG   !            |
|           WW  WW  A    A  R   R   N   NN  II  N   NN  G    G                |
|           W    W  A    A  R    R  N    N  II  N    N   GGGG   !!!           |
|                                                                             |
|     For optimal performance we recommend to set                             |
|       NCORE = 2 up to number-of-cores-per-socket                            |
|     NCORE specifies how many cores store one orbital (NPAR=cpu/NCORE).      |
|     This setting can greatly improve the performance of VASP for DFT.       |
|     The default, NCORE=1 might be grossly inefficient on modern             |
|     multi-core architectures or massively parallel machines. Do your        |
|     own testing! More info at https://www.vasp.at/wiki/index.php/NCORE      |
|     Unfortunately you need to use the default for GW and RPA                |
|     calculations (for HF NCORE is supported but not extensively tested      |
|     yet).                                                                   |
|                                                                             |
 -----------------------------------------------------------------------------

 Reading from existing POTCAR
 LDA part: xc-table for (Slater+PW92), standard interpolation
 POSCAR, INCAR and KPOINTS ok, starting setup
 FFT: planning ... GRIDC
 FFT: planning ... GRID_SOFT
 FFT: planning ... GRID
 WAVECAR not read
 WARNING: random wavefunctions but no delay for mixing, default for NELMDL
 prediction of wavefunctions initialized - no I/O
 entering main loop
       N       E                     dE             d eps       ncg     rms          rms(c)
DAV:   1     0.214751064820E+05    0.21475E+05   -0.52968E+05  3072   0.170E+03
DAV:   2     0.618982933922E+04   -0.15285E+05   -0.13621E+05  3168   0.463E+02
DAV:   3     0.476705134060E+02   -0.61422E+04   -0.56107E+04  3792   0.260E+02
DAV:   4    -0.138006803263E+04   -0.14277E+04   -0.13911E+04  4224   0.129E+02
DAV:   5    -0.148611804322E+04   -0.10605E+03   -0.98941E+02  4992   0.423E+01    0.206E+02
RMM:   6    -0.129014028572E+04    0.19598E+03   -0.24975E+03  4191   0.545E+01    0.337E+02
RMM:   7    -0.119823915828E+04    0.91901E+02   -0.32728E+02  4223   0.249E+01    0.118E+02
RMM:   8    -0.166919295124E+04   -0.47095E+03   -0.85903E+02  4425   0.380E+01    0.289E+02
RMM:   9    -0.121023656504E+04    0.45896E+03   -0.24559E+02  3982   0.237E+01    0.927E+01
RMM:  10    -0.123806419364E+04   -0.27828E+02   -0.19890E+02  4091   0.182E+01    0.974E+01
RMM:  11    -0.115027680959E+04    0.87787E+02   -0.12746E+02  4202   0.125E+01    0.794E+01
RMM:  12    -0.112677543857E+04    0.23501E+02   -0.73813E+01  4283   0.832E+00    0.671E+01
RMM:  13    -0.112710562604E+04   -0.33019E+00   -0.51293E+01  4225   0.755E+00    0.683E+01
RMM:  14    -0.112710358639E+04    0.20397E-02   -0.34920E+01  4260   0.561E+00    0.552E+01
RMM:  15    -0.113519431288E+04   -0.80907E+01   -0.13441E+01  4302   0.352E+00    0.573E+01
RMM:  16    -0.113607613810E+04   -0.88183E+00   -0.10200E+01  4366   0.298E+00    0.484E+01
RMM:  17    -0.113829108374E+04   -0.22149E+01   -0.49017E+00  4570   0.194E+00    0.432E+01
RMM:  18    -0.114157994440E+04   -0.32889E+01   -0.29065E+00  4688   0.149E+00    0.422E+01
RMM:  19    -0.114344163632E+04   -0.18617E+01   -0.17164E+00  4993   0.110E+00    0.419E+01
RMM:  20    -0.114479861380E+04   -0.13570E+01   -0.15172E+00  4964   0.102E+00    0.409E+01
RMM:  21    -0.114542605476E+04   -0.62744E+00   -0.12880E+00  4918   0.972E-01    0.396E+01
RMM:  22    -0.114598721255E+04   -0.56116E+00   -0.55056E+00  4922   0.199E+00    0.363E+01
RMM:  23    -0.114168705315E+04    0.43002E+01   -0.14747E+01  5195   0.337E+00    0.294E+01
RMM:  24    -0.113791335253E+04    0.37737E+01   -0.97991E+00  5090   0.269E+00    0.288E+01
RMM:  25    -0.113802279619E+04   -0.10944E+00   -0.46079E+00  4943   0.200E+00    0.278E+01
RMM:  26    -0.114656946636E+04   -0.85467E+01   -0.51938E+00  5030   0.226E+00    0.238E+01
RMM:  27    -0.115839834272E+04   -0.11829E+02   -0.70059E+00  5091   0.244E+00    0.344E+01
RMM:  28    -0.115717021315E+04    0.12281E+01   -0.60787E-01  4377   0.769E-01    0.212E+01
RMM:  29    -0.116204180421E+04   -0.48716E+01   -0.14920E+00  4756   0.115E+00    0.327E+01
RMM:  30    -0.116334432962E+04   -0.13025E+01   -0.73220E-01  4559   0.876E-01    0.286E+01
RMM:  31    -0.116447928899E+04   -0.11350E+01   -0.24161E-01  4340   0.463E-01    0.262E+01
RMM:  32    -0.116505498177E+04   -0.57569E+00   -0.12463E-01  4558   0.294E-01    0.240E+01
RMM:  33    -0.116505948178E+04   -0.45000E-02   -0.46248E-02  4661   0.227E-01    0.241E+01
RMM:  34    -0.116559454804E+04   -0.53507E+00   -0.20000E-01  4861   0.429E-01    0.253E+01
RMM:  35    -0.116927801909E+04   -0.36835E+01   -0.13646E+00  5237   0.111E+00    0.223E+01
RMM:  36    -0.116981688825E+04   -0.53887E+00   -0.54911E-01  4981   0.734E-01    0.196E+01
RMM:  37    -0.117191328423E+04   -0.20964E+01   -0.67679E-01  5130   0.852E-01    0.180E+01
RMM:  38    -0.117331263303E+04   -0.13993E+01   -0.48483E-01  5029   0.694E-01    0.174E+01
RMM:  39    -0.117545461718E+04   -0.21420E+01   -0.71713E-01  5145   0.820E-01    0.158E+01
RMM:  40    -0.117829413706E+04   -0.28395E+01   -0.13826E+00  5290   0.110E+00    0.145E+01
RMM:  41    -0.118025285542E+04   -0.19587E+01   -0.93219E-01  5187   0.890E-01    0.115E+01
RMM:  42    -0.118090476917E+04   -0.65191E+00   -0.20685E-01  4757   0.449E-01    0.104E+01
RMM:  43    -0.118144998313E+04   -0.54521E+00   -0.14940E-01  4693   0.352E-01    0.936E+00
RMM:  44    -0.118183897304E+04   -0.38899E+00   -0.74108E-02  4358   0.283E-01    0.910E+00
RMM:  45    -0.118195035133E+04   -0.11138E+00   -0.35958E-02  4002   0.223E-01    0.903E+00
RMM:  46    -0.118225494095E+04   -0.30459E+00   -0.74764E-02  4508   0.263E-01    0.873E+00
RMM:  47    -0.118274672208E+04   -0.49178E+00   -0.35532E-01  5035   0.541E-01    0.790E+00
RMM:  48    -0.118408016411E+04   -0.13334E+01   -0.66670E-01  5192   0.737E-01    0.910E+00
RMM:  49    -0.118488166070E+04   -0.80150E+00   -0.29816E-01  5028   0.535E-01    0.878E+00
RMM:  50    -0.118607109697E+04   -0.11894E+01   -0.31594E-01  5041   0.529E-01    0.841E+00
RMM:  51    -0.118984753514E+04   -0.37764E+01   -0.32471E+00  5401   0.177E+00    0.131E+01
RMM:  52    -0.118979177973E+04    0.55755E-01   -0.12774E-01  4726   0.337E-01    0.127E+01
RMM:  53    -0.118980406327E+04   -0.12284E-01   -0.22754E-02  4236   0.135E-01    0.129E+01
RMM:  54    -0.119000519607E+04   -0.20113E+00   -0.83590E-02  4926   0.295E-01    0.124E+01
RMM:  55    -0.119003827310E+04   -0.33077E-01   -0.17862E-02  4189   0.136E-01    0.120E+01
RMM:  56    -0.118998925205E+04    0.49021E-01   -0.37995E-01  5245   0.578E-01    0.108E+01
RMM:  57    -0.119011447423E+04   -0.12522E+00   -0.18223E-01  5104   0.457E-01    0.972E+00
RMM:  58    -0.119022923297E+04   -0.11476E+00   -0.57225E-01  5299   0.708E-01    0.756E+00
RMM:  59    -0.119100027058E+04   -0.77104E+00   -0.48355E-01  5293   0.612E-01    0.637E+00
RMM:  60    -0.119123349087E+04   -0.23322E+00   -0.23436E-01  4978   0.414E-01    0.566E+00
RMM:  61    -0.119174741159E+04   -0.51392E+00   -0.68728E-01  5271   0.776E-01    0.531E+00
RMM:  62    -0.119194352657E+04   -0.19611E+00   -0.13447E-01  4958   0.342E-01    0.478E+00
RMM:  63    -0.119236521412E+04   -0.42169E+00   -0.17129E-01  5023   0.357E-01    0.494E+00
RMM:  64    -0.119262640148E+04   -0.26119E+00   -0.16247E-01  5032   0.347E-01    0.528E+00
RMM:  65    -0.119277294638E+04   -0.14654E+00   -0.69500E-02  4823   0.224E-01    0.891E+00
RMM:  66    -0.119272712618E+04    0.45820E-01   -0.21612E-02  4107   0.204E-01    0.858E+00
RMM:  67    -0.119271604075E+04    0.11085E-01   -0.25779E-03  3289   0.688E-02    0.861E+00
RMM:  68    -0.119276125654E+04   -0.45216E-01   -0.76519E-03  3944   0.889E-02    0.917E+00
RMM:  69    -0.119275473675E+04    0.65198E-02   -0.81433E-04  2760   0.394E-02    0.914E+00
RMM:  70    -0.119272838818E+04    0.26349E-01   -0.11258E-02  4528   0.101E-01    0.840E+00
RMM:  71    -0.119274247404E+04   -0.14086E-01   -0.31895E-01  5284   0.501E-01    0.574E+00
RMM:  72    -0.119273583500E+04    0.66390E-02   -0.62383E-02  5095   0.283E-01    0.528E+00
RMM:  73    -0.119272406630E+04    0.11769E-01   -0.23099E-02  4905   0.138E-01    0.681E+00
RMM:  74    -0.119271867575E+04    0.53906E-02   -0.59319E-03  3883   0.115E-01    0.658E+00
RMM:  75    -0.119271411051E+04    0.45652E-02   -0.10295E-02  4594   0.102E-01    0.685E+00
RMM:  76    -0.119260598860E+04    0.10812E+00   -0.59718E-01  5259   0.599E-01    0.419E+00
RMM:  77    -0.119278429125E+04   -0.17830E+00   -0.91775E-02  5148   0.339E-01    0.442E+00
RMM:  78    -0.119282460762E+04   -0.40316E-01   -0.86173E-02  5158   0.265E-01    0.491E+00
RMM:  79    -0.119286572656E+04   -0.41119E-01   -0.31259E-02  4861   0.140E-01    0.519E+00
RMM:  80    -0.119289469830E+04   -0.28972E-01   -0.10998E-02  4444   0.808E-02    0.536E+00
RMM:  81    -0.119267443908E+04    0.22026E+00   -0.87505E-01  5296   0.784E-01    0.459E+00
RMM:  82    -0.119294229427E+04   -0.26786E+00   -0.11125E-01  5168   0.342E-01    0.472E+00
RMM:  83    -0.119313103604E+04   -0.18874E+00   -0.60934E-02  5135   0.227E-01    0.485E+00
RMM:  84    -0.119323255964E+04   -0.10152E+00   -0.33814E-02  5011   0.168E-01    0.473E+00
RMM:  85    -0.119334778533E+04   -0.11523E+00   -0.34940E-02  5009   0.158E-01    0.529E+00
RMM:  86    -0.119298058336E+04    0.36720E+00   -0.45283E-01  5294   0.560E-01    0.335E+00
RMM:  87    -0.119331889752E+04   -0.33831E+00   -0.92326E-02  5167   0.302E-01    0.292E+00
RMM:  88    -0.119344777471E+04   -0.12888E+00   -0.31375E-02  4957   0.159E-01    0.281E+00
RMM:  89    -0.119351527536E+04   -0.67501E-01   -0.14187E-02  4785   0.119E-01    0.264E+00
RMM:  90    -0.119356614488E+04   -0.50870E-01   -0.11306E-02  4687   0.106E-01
 -----------------------------------------------------------------------------
|                                                                             |
|           W    W    AA    RRRRR   N    N  II  N    N   GGGG   !!!           |
|           W    W   A  A   R    R  NN   N  II  NN   N  G    G  !!!           |
|           W    W  A    A  R    R  N N  N  II  N N  N  G       !!!           |
|           W WW W  AAAAAA  RRRRR   N  N N  II  N  N N  G  GGG   !            |
|           WW  WW  A    A  R   R   N   NN  II  N   NN  G    G                |
|           W    W  A    A  R    R  N    N  II  N    N   GGGG   !!!           |
|                                                                             |
|     The electronic self-consistency was not achieved in the given           |
|     number of steps (NELM). The forces and other quantities evaluated       |
|     might not be reliable so examine the results carefully. If you find     |
|     spurious results, we suggest increasing NELM, if you were close to      |
|     convergence or switching to a different ALGO or adjusting the           |
|     density mixing parameters otherwise.                                    |
|                                                                             |
 -----------------------------------------------------------------------------

      1 T=  3297. E= -.11591442E+04 F= -.12145427E+04 E0= -.12145298E+04  EK= 0.55398E+02 SP= 0.00E+00 SK= 0.00E+00 mag=     32.548
 bond charge predicted
       N       E                     dE             d eps       ncg     rms          rms(c)
DAV:   1    -0.540194652006E+03    0.65332E+03   -0.40525E+04  3984   0.192E+02    0.282E+02
RMM:   2    -0.890327807981E+03   -0.35013E+03   -0.55402E+03  4712   0.107E+02    0.431E+02
RMM:   3    -0.944108966071E+03   -0.53781E+02   -0.21560E+03  5079   0.494E+01    0.351E+02
RMM:   4    -0.204991750114E+04   -0.11058E+04   -0.15482E+03  5125   0.127E+02    0.703E+02
RMM:   5    -0.206090002861E+04   -0.10983E+02   -0.38288E+02  5240   0.754E+01    0.509E+02
RMM:   6    -0.195960147914E+04    0.10130E+03   -0.92520E+02  5150   0.602E+01    0.529E+02
RMM:   7    -0.159761049322E+04    0.36199E+03   -0.54683E+02  5061   0.342E+01    0.346E+02
RMM:   8    -0.128691837408E+04    0.31069E+03   -0.54035E+02  4900   0.454E+01    0.287E+02
RMM:   9    -0.986806915438E+03    0.30011E+03   -0.47329E+02  4954   0.355E+01    0.211E+02
RMM:  10    -0.912915006317E+03    0.73892E+02   -0.29892E+02  4942   0.209E+01    0.147E+02
RMM:  11    -0.901637066556E+03    0.11278E+02   -0.21910E+02  4944   0.236E+01    0.144E+02
RMM:  12    -0.858982578595E+03    0.42654E+02   -0.77492E+01  4954   0.181E+01    0.114E+02
RMM:  13    -0.909048049846E+03   -0.50065E+02   -0.11456E+02  4984   0.178E+01    0.136E+02
RMM:  14    -0.893206080956E+03    0.15842E+02   -0.98086E+01  5046   0.149E+01    0.119E+02
RMM:  15    -0.904984969283E+03   -0.11779E+02   -0.10085E+02  5080   0.124E+01    0.127E+02
RMM:  16    -0.908505768843E+03   -0.35208E+01   -0.78944E+01  5087   0.105E+01    0.110E+02
RMM:  17    -0.911102600933E+03   -0.25968E+01   -0.70869E+01  5223   0.925E+00    0.108E+02
RMM:  18    -0.916796003059E+03   -0.56934E+01   -0.65332E+01  5267   0.796E+00    0.104E+02
RMM:  19    -0.923920866008E+03   -0.71249E+01   -0.56202E+01  5389   0.719E+00    0.106E+02
RMM:  20    -0.928496463637E+03   -0.45756E+01   -0.43467E+01  5413   0.639E+00    0.104E+02
RMM:  21    -0.932564353814E+03   -0.40679E+01   -0.31332E+01  5417   0.595E+00    0.105E+02
RMM:  22    -0.936243945956E+03   -0.36796E+01   -0.26672E+01  5386   0.563E+00    0.105E+02
RMM:  23    -0.940315572687E+03   -0.40716E+01   -0.24906E+01  5294   0.557E+00    0.104E+02
RMM:  24    -0.942625746688E+03   -0.23102E+01   -0.20527E+01  5366   0.511E+00    0.105E+02
RMM:  25    -0.944925544873E+03   -0.22998E+01   -0.20047E+01  5366   0.485E+00    0.104E+02
RMM:  26    -0.945504213112E+03   -0.57867E+00   -0.19483E+01  5283   0.492E+00    0.104E+02
RMM:  27    -0.948031684742E+03   -0.25275E+01   -0.21597E+01  5326   0.466E+00    0.105E+02
RMM:  28    -0.949486064935E+03   -0.14544E+01   -0.19613E+01  5330   0.445E+00    0.105E+02
RMM:  29    -0.952639884011E+03   -0.31538E+01   -0.20045E+01  5305   0.445E+00    0.105E+02
RMM:  30    -0.954044499211E+03   -0.14046E+01   -0.19028E+01  5286   0.434E+00    0.104E+02
RMM:  31    -0.957523102269E+03   -0.34786E+01   -0.22607E+01  5299   0.426E+00    0.105E+02
RMM:  32    -0.959718623535E+03   -0.21955E+01   -0.18848E+01  5316   0.401E+00    0.105E+02
RMM:  33    -0.963343911816E+03   -0.36253E+01   -0.18839E+01  5293   0.397E+00    0.106E+02
RMM:  34    -0.965312545744E+03   -0.19686E+01   -0.14476E+01  5284   0.377E+00    0.107E+02
RMM:  35    -0.966378784535E+03   -0.10662E+01   -0.13122E+01  5268   0.393E+00    0.109E+02
RMM:  36    -0.970582656571E+03   -0.42039E+01   -0.11586E+01  5276   0.371E+00    0.111E+02
RMM:  37    -0.971571383131E+03   -0.98873E+00   -0.10231E+01  5291   0.339E+00    0.111E+02
RMM:  38    -0.973003806464E+03   -0.14324E+01   -0.10193E+01  5260   0.326E+00    0.111E+02
RMM:  39    -0.974122671885E+03   -0.11189E+01   -0.88533E+00  5251   0.318E+00    0.111E+02
RMM:  40    -0.975091246627E+03   -0.96857E+00   -0.86005E+00  5242   0.309E+00    0.111E+02
RMM:  41    -0.976245559335E+03   -0.11543E+01   -0.89812E+00  5238   0.307E+00    0.111E+02
RMM:  42    -0.977780159273E+03   -0.15346E+01   -0.95823E+00  5266   0.310E+00    0.112E+02
RMM:  43    -0.978632629409E+03   -0.85247E+00   -0.89071E+00  5254   0.301E+00    0.112E+02
RMM:  44    -0.979654528678E+03   -0.10219E+01   -0.82872E+00  5232   0.288E+00    0.112E+02
RMM:  45    -0.980669318943E+03   -0.10148E+01   -0.80825E+00  5234   0.282E+00    0.112E+02
RMM:  46    -0.981289014816E+03   -0.61970E+00   -0.92137E+00  5278   0.291E+00    0.112E+02
RMM:  47    -0.918211581997E+03    0.63077E+02   -0.30932E+02  5421   0.200E+01    0.943E+01
RMM:  48    -0.913696095207E+03    0.45155E+01   -0.21179E+02  5430   0.139E+01    0.861E+01
RMM:  49    -0.873919796712E+03    0.39776E+02   -0.99185E+01  5420   0.102E+01    0.825E+01
RMM:  50    -0.853869180443E+03    0.20051E+02   -0.44742E+01  5403   0.780E+00    0.735E+01
RMM:  51    -0.827197087052E+03    0.26672E+02   -0.45945E+01  5398   0.818E+00    0.719E+01
RMM:  52    -0.793853301103E+03    0.33344E+02   -0.56270E+01  5395   0.959E+00    0.854E+01
RMM:  53    -0.773926200496E+03    0.19927E+02   -0.37163E+00  5376   0.727E+00    0.675E+01
RMM:  54    -0.769843907132E+03    0.40823E+01   -0.32562E+01  5376   0.726E+00    0.756E+01
RMM:  55    -0.749009489989E+03    0.20834E+02   -0.12860E+01  5384   0.656E+00    0.704E+01
RMM:  56    -0.727659814304E+03    0.21350E+02   -0.16471E+01  5378   0.650E+00    0.714E+01
RMM:  57    -0.729694055038E+03   -0.20342E+01   -0.93503E+00  5371   0.694E+00    0.676E+01
RMM:  58    -0.715538249043E+03    0.14156E+02   -0.20367E+01  5375   0.655E+00    0.710E+01
RMM:  59    -0.704929825547E+03    0.10608E+02   -0.17938E+01  5350   0.603E+00    0.728E+01
RMM:  60    -0.702887732641E+03    0.20421E+01   -0.23587E+01  5350   0.600E+00    0.731E+01
RMM:  61    -0.699899440291E+03    0.29883E+01   -0.46393E+01  5359   0.614E+00    0.737E+01
RMM:  62    -0.856381295298E+03   -0.15648E+03   -0.17793E+02  5411   0.164E+01    0.726E+01
RMM:  63    -0.787167911049E+03    0.69213E+02   -0.93905E+01  5384   0.109E+01    0.663E+01
RMM:  64    -0.763376617036E+03    0.23791E+02   -0.92706E+01  5383   0.752E+00    0.669E+01
RMM:  65    -0.754540596594E+03    0.88360E+01   -0.54599E+01  5369   0.630E+00    0.654E+01
RMM:  66    -0.761626170440E+03   -0.70856E+01   -0.38674E+01  5375   0.464E+00    0.654E+01
RMM:  67    -0.835545005066E+03   -0.73919E+02   -0.62941E+01  5370   0.807E+00    0.623E+01
RMM:  68    -0.837614972724E+03   -0.20700E+01   -0.39613E+01  5351   0.433E+00    0.572E+01
RMM:  69    -0.831837306981E+03    0.57777E+01   -0.22732E+01  5345   0.340E+00    0.560E+01
RMM:  70    -0.828154835586E+03    0.36825E+01   -0.14399E+01  5360   0.302E+00    0.574E+01
RMM:  71    -0.824821295384E+03    0.33335E+01   -0.11200E+01  5366   0.353E+00    0.592E+01
RMM:  72    -0.962857028501E+03   -0.13804E+03   -0.89619E+01  5397   0.110E+01    0.624E+01
RMM:  73    -0.942205887872E+03    0.20651E+02   -0.34315E+01  5380   0.574E+00    0.570E+01
RMM:  74    -0.931493783584E+03    0.10712E+02   -0.15914E+01  5350   0.351E+00    0.507E+01
RMM:  75    -0.923032566599E+03    0.84612E+01   -0.12106E+01  5362   0.325E+00    0.476E+01
RMM:  76    -0.919216496056E+03    0.38161E+01   -0.10963E+01  5366   0.305E+00    0.444E+01
RMM:  77    -0.944031580331E+03   -0.24815E+02   -0.42306E+01  5379   0.669E+00    0.487E+01
RMM:  78    -0.933182865676E+03    0.10849E+02   -0.18415E+01  5364   0.417E+00    0.472E+01
RMM:  79    -0.930563413305E+03    0.26195E+01   -0.79333E+00  5288   0.223E+00    0.371E+01
RMM:  80    -0.930225517222E+03    0.33790E+00   -0.63671E+00  5292   0.235E+00    0.354E+01
RMM:  81    -0.930328160027E+03   -0.10264E+00   -0.45467E+00  5268   0.184E+00    0.319E+01
RMM:  82    -0.942039405904E+03   -0.11711E+02   -0.96853E+00  5364   0.288E+00    0.288E+01
RMM:  83    -0.938376651647E+03    0.36628E+01   -0.50715E+00  5292   0.220E+00    0.282E+01
RMM:  84    -0.936477785326E+03    0.18989E+01   -0.28564E+00  5116   0.149E+00    0.272E+01
RMM:  85    -0.936768682696E+03   -0.29090E+00   -0.16168E+00  5064   0.128E+00    0.240E+01
RMM:  86    -0.936889909286E+03   -0.12123E+00   -0.69069E-01  4894   0.722E-01    0.230E+01
RMM:  87    -0.944080876751E+03   -0.71910E+01   -0.72433E+00  5311   0.246E+00    0.241E+01
RMM:  88    -0.945809021736E+03   -0.17281E+01   -0.22471E+00  5065   0.129E+00    0.204E+01
RMM:  89    -0.946197561779E+03   -0.38854E+00   -0.25902E+00  5082   0.133E+00    0.190E+01
RMM:  90    -0.946020204607E+03    0.17736E+00   -0.26483E+00  5105   0.141E+00
 -----------------------------------------------------------------------------
|                                                                             |
|           W    W    AA    RRRRR   N    N  II  N    N   GGGG   !!!           |
|           W    W   A  A   R    R  NN   N  II  NN   N  G    G  !!!           |
|           W    W  A    A  R    R  N N  N  II  N N  N  G       !!!           |
|           W WW W  AAAAAA  RRRRR   N  N N  II  N  N N  G  GGG   !            |
|           WW  WW  A    A  R   R   N   NN  II  N   NN  G    G                |
|           W    W  A    A  R    R  N    N  II  N    N   GGGG   !!!           |
|                                                                             |
|     The electronic self-consistency was not achieved in the given           |
|     number of steps (NELM). The forces and other quantities evaluated       |
|     might not be reliable so examine the results carefully. If you find     |
|     spurious results, we suggest increasing NELM, if you were close to      |
|     convergence or switching to a different ALGO or adjusting the           |
|     density mixing parameters otherwise.                                    |
|                                                                             |
 -----------------------------------------------------------------------------

      2 T= ****** E= 0.76023661E+05 F= -.96788131E+03 E0= -.96785113E+03  EK= 0.76992E+05 SP= 0.00E+00 SK= 0.00E+00 mag=     31.895
Information: wavefunction orthogonal band   34  0.8877
Information: wavefunction orthogonal band   86  0.8123
Information: wavefunction orthogonal band   87  0.8407
Information: wavefunction orthogonal band   89  0.8584
Information: wavefunction orthogonal band  121  0.6644
Information: wavefunction orthogonal band  133  0.1731
Information: wavefunction orthogonal band  142  0.8356
Information: wavefunction orthogonal band  146  0.8995
Information: wavefunction orthogonal band  155  0.5410
Information: wavefunction orthogonal band  189  0.3325
Information: wavefunction orthogonal band  198  0.6681
Information: wavefunction orthogonal band  208  0.1636
Information: wavefunction orthogonal band  209  0.5409
Information: wavefunction orthogonal band  248  0.6710
Information: wavefunction orthogonal band  256  0.8926
Information: wavefunction orthogonal band  260  0.8816
Information: wavefunction orthogonal band  266  0.7462
Information: wavefunction orthogonal band  272  0.8345
Information: wavefunction orthogonal band  275  0.8330
Information: wavefunction orthogonal band  278  0.5938
Information: wavefunction orthogonal band  280  0.8843
Information: wavefunction orthogonal band  282  0.8476
Information: wavefunction orthogonal band  284  0.7739
Information: wavefunction orthogonal band  287  0.8156
Information: wavefunction orthogonal band  288  0.8788
Information: wavefunction orthogonal band  300  0.6888
Information: wavefunction orthogonal band  308  0.6875
Information: wavefunction orthogonal band  311  0.7429
Information: wavefunction orthogonal band  342  0.7919
Information: wavefunction orthogonal band  361  0.7915
Information: wavefunction orthogonal band  362  0.7886
Information: wavefunction orthogonal band  363  0.6448
Information: wavefunction orthogonal band  366  0.4516
Information: wavefunction orthogonal band  367  0.8345
Information: wavefunction orthogonal band  368  0.7442
Information: wavefunction orthogonal band  402  0.8431
Information: wavefunction orthogonal band  406  0.8706
Information: wavefunction orthogonal band  411  0.5521
Information: wavefunction orthogonal band  412  0.8938
Information: wavefunction orthogonal band  414  0.8958
Information: wavefunction orthogonal band  415  0.7734
Information: wavefunction orthogonal band  416  0.8774
Information: wavefunction orthogonal band  419  0.8056
Information: wavefunction orthogonal band  421  0.7818
Information: wavefunction orthogonal band  430  0.8949
Information: wavefunction orthogonal band  434  0.8094
Information: wavefunction orthogonal band  437  0.8551
Information: wavefunction orthogonal band  441  0.6097
Information: wavefunction orthogonal band  456  0.8874
Information: wavefunction orthogonal band  457  0.7938
Information: wavefunction orthogonal band  458  0.8644
Information: wavefunction orthogonal band  460  0.8916
Information: wavefunction orthogonal band  461  0.7190
Information: wavefunction orthogonal band  465  0.6509
Information: wavefunction orthogonal band  466  0.8838
Information: wavefunction orthogonal band  470  0.6037
Information: wavefunction orthogonal band  480  0.8913
Information: wavefunction orthogonal band  482  0.8841
Information: wavefunction orthogonal band  485  0.8510
Information: wavefunction orthogonal band  486  0.8221
Information: wavefunction orthogonal band  504  0.8646
Information: wavefunction orthogonal band  508  0.8486
Information: wavefunction orthogonal band  511  0.6681
Information: wavefunction orthogonal band  512  0.8750
Information: wavefunction orthogonal band  513  0.8923
Information: wavefunction orthogonal band  530  0.8759
Information: wavefunction orthogonal band  538  0.8997
Information: wavefunction orthogonal band  539  0.8758
Information: wavefunction orthogonal band  540  0.8051
Information: wavefunction orthogonal band  547  0.8728
Information: wavefunction orthogonal band  552  0.8594
Information: wavefunction orthogonal band  556  0.5796
Information: wavefunction orthogonal band  569  0.8665
Information: wavefunction orthogonal band  570  0.7735
Information: wavefunction orthogonal band  577  0.6913
Information: wavefunction orthogonal band  578  0.5237
Information: wavefunction orthogonal band  580  0.6613
Information: wavefunction orthogonal band  584  0.4121
Information: wavefunction orthogonal band  588  0.6786
Information: wavefunction orthogonal band  589  0.8916
Information: wavefunction orthogonal band  590  0.8588
Information: wavefunction orthogonal band  591  0.8495
Information: wavefunction orthogonal band  592  0.6730
Information: wavefunction orthogonal band  594  0.7473
Information: wavefunction orthogonal band  595  0.8933
Information: wavefunction orthogonal band  597  0.8676
Information: wavefunction orthogonal band  599  0.4599
Information: wavefunction orthogonal band  600  0.2203
Information: wavefunction orthogonal band  601  0.7856
Information: wavefunction orthogonal band  602  0.3739
Information: wavefunction orthogonal band  603  0.8094
Information: wavefunction orthogonal band  605  0.3267
Information: wavefunction orthogonal band  606  0.6721
Information: wavefunction orthogonal band  607  0.8806
Information: wavefunction orthogonal band  609  0.4165
Information: wavefunction orthogonal band  610  0.8596
Information: wavefunction orthogonal band  611  0.5123
Information: wavefunction orthogonal band  612  0.7556
Information: wavefunction orthogonal band  613  0.8732
Information: wavefunction orthogonal band  614  0.8934
Information: wavefunction orthogonal band  615  0.5722
Information: wavefunction orthogonal band  616  0.7139
Information: wavefunction orthogonal band  617  0.7556
Information: wavefunction orthogonal band  618  0.8457
Information: wavefunction orthogonal band  619  0.6445
Information: wavefunction orthogonal band  620  0.7443
Information: wavefunction orthogonal band  621  0.5601
Information: wavefunction orthogonal band  623  0.8285
Information: wavefunction orthogonal band  624  0.8822
Information: wavefunction orthogonal band  625  0.8822
Information: wavefunction orthogonal band  626  0.7926
Information: wavefunction orthogonal band  627  0.8526
Information: wavefunction orthogonal band  628  0.8965
Information: wavefunction orthogonal band  629  0.6082
Information: wavefunction orthogonal band  630  0.8484
Information: wavefunction orthogonal band  631  0.8419
Information: wavefunction orthogonal band  632  0.8259
Information: wavefunction orthogonal band  633  0.8581
Information: wavefunction orthogonal band  635  0.8988
Information: wavefunction orthogonal band  645  0.8184
Information: wavefunction orthogonal band  648  0.8612
Information: wavefunction orthogonal band  649  0.8908
Information: wavefunction orthogonal band  650  0.8477
Information: wavefunction orthogonal band  652  0.8580
Information: wavefunction orthogonal band  654  0.8844
Information: wavefunction orthogonal band  656  0.8717
Information: wavefunction orthogonal band  657  0.8862
Information: wavefunction orthogonal band  661  0.8728
Information: wavefunction orthogonal band  662  0.8173
Information: wavefunction orthogonal band  663  0.8767
Information: wavefunction orthogonal band  664  0.8985
Information: wavefunction orthogonal band  666  0.7710
Information: wavefunction orthogonal band  667  0.8758
Information: wavefunction orthogonal band  668  0.8932
Information: wavefunction orthogonal band  669  0.8939
Information: wavefunction orthogonal band  670  0.8643
Information: wavefunction orthogonal band  673  0.8684
Information: wavefunction orthogonal band  674  0.8938
Information: wavefunction orthogonal band  675  0.8880
Information: wavefunction orthogonal band  678  0.8983
Information: wavefunction orthogonal band  679  0.8832
Information: wavefunction orthogonal band  681  0.8879
Information: wavefunction orthogonal band  685  0.8819
Information: wavefunction orthogonal band  691  0.8938
Information: wavefunction orthogonal band  701  0.8878
Information: wavefunction orthogonal band  705  0.8994
Information: wavefunction orthogonal band  713  0.8941
Information: wavefunction orthogonal band  716  0.8865
Information: wavefunction orthogonal band  720  0.8912
Information: wavefunction orthogonal band  723  0.8786
Information: wavefunction orthogonal band  729  0.8786
Information: wavefunction orthogonal band  731  0.8780
Information: wavefunction orthogonal band  749  0.8677
Information: wavefunction orthogonal band  750  0.8970
Information: wavefunction orthogonal band  752  0.8865
Information: wavefunction orthogonal band  757  0.8947
Information: wavefunction orthogonal band  759  0.8991
Information: wavefunction orthogonal band  760  0.8722
Information: wavefunction orthogonal band  763  0.6647
Information: wavefunction orthogonal band  764  0.0038
Information: wavefunction orthogonal band  765  0.0496
Information: wavefunction orthogonal band  766  0.0595
Information: wavefunction orthogonal band  767  0.0467
Information: wavefunction orthogonal band  768  0.0570
Information: wavefunction orthogonal band   34  0.8893
Information: wavefunction orthogonal band   95  0.3670
Information: wavefunction orthogonal band  110  0.8321
Information: wavefunction orthogonal band  111  0.6477
Information: wavefunction orthogonal band  116  0.8216
Information: wavefunction orthogonal band  142  0.8835
Information: wavefunction orthogonal band  176  0.8351
Information: wavefunction orthogonal band  179  0.6007
Information: wavefunction orthogonal band  192  0.1630
Information: wavefunction orthogonal band  197  0.2231
Information: wavefunction orthogonal band  208  0.6606
Information: wavefunction orthogonal band  226  0.1812
Information: wavefunction orthogonal band  248  0.8307
Information: wavefunction orthogonal band  249  0.8204
Information: wavefunction orthogonal band  256  0.8955
Information: wavefunction orthogonal band  262  0.8849
Information: wavefunction orthogonal band  267  0.7429
Information: wavefunction orthogonal band  274  0.7117
Information: wavefunction orthogonal band  276  0.8440
Information: wavefunction orthogonal band  279  0.8569
Information: wavefunction orthogonal band  280  0.8584
Information: wavefunction orthogonal band  281  0.7949
Information: wavefunction orthogonal band  283  0.7642
Information: wavefunction orthogonal band  285  0.7873
Information: wavefunction orthogonal band  286  0.8814
Information: wavefunction orthogonal band  289  0.8649
Information: wavefunction orthogonal band  305  0.5825
Information: wavefunction orthogonal band  307  0.6445
Information: wavefunction orthogonal band  324  0.8614
Information: wavefunction orthogonal band  326  0.8043
Information: wavefunction orthogonal band  338  0.7956
Information: wavefunction orthogonal band  339  0.8141
Information: wavefunction orthogonal band  348  0.3945
Information: wavefunction orthogonal band  353  0.7589
Information: wavefunction orthogonal band  367  0.6886
Information: wavefunction orthogonal band  388  0.3309
Information: wavefunction orthogonal band  396  0.8202
Information: wavefunction orthogonal band  397  0.8321
Information: wavefunction orthogonal band  401  0.6230
Information: wavefunction orthogonal band  418  0.8167
Information: wavefunction orthogonal band  424  0.7775
Information: wavefunction orthogonal band  426  0.8811
Information: wavefunction orthogonal band  432  0.8225
Information: wavefunction orthogonal band  434  0.6331
Information: wavefunction orthogonal band  446  0.8742
Information: wavefunction orthogonal band  448  0.8613
Information: wavefunction orthogonal band  450  0.7608
Information: wavefunction orthogonal band  452  0.8563
Information: wavefunction orthogonal band  462  0.8761
Information: wavefunction orthogonal band  468  0.8569
Information: wavefunction orthogonal band  470  0.8779
Information: wavefunction orthogonal band  489  0.8749
Information: wavefunction orthogonal band  490  0.8884
Information: wavefunction orthogonal band  493  0.8979
Information: wavefunction orthogonal band  495  0.8143
Information: wavefunction orthogonal band  497  0.8740
Information: wavefunction orthogonal band  504  0.8769
Information: wavefunction orthogonal band  507  0.7828
Information: wavefunction orthogonal band  518  0.8584
Information: wavefunction orthogonal band  520  0.6183
Information: wavefunction orthogonal band  525  0.7924
Information: wavefunction orthogonal band  526  0.8929
Information: wavefunction orthogonal band  528  0.8096
Information: wavefunction orthogonal band  529  0.8523
Information: wavefunction orthogonal band  530  0.8601
Information: wavefunction orthogonal band  537  0.6902
Information: wavefunction orthogonal band  538  0.8827
Information: wavefunction orthogonal band  540  0.3924
Information: wavefunction orthogonal band  544  0.8201
Information: wavefunction orthogonal band  545  0.6632
Information: wavefunction orthogonal band  556  0.4100
Information: wavefunction orthogonal band  558  0.8056
Information: wavefunction orthogonal band  559  0.7764
Information: wavefunction orthogonal band  560  0.6526
Information: wavefunction orthogonal band  561  0.5715
Information: wavefunction orthogonal band  563  0.7379
Information: wavefunction orthogonal band  564  0.7310
Information: wavefunction orthogonal band  565  0.4736
Information: wavefunction orthogonal band  567  0.6780
Information: wavefunction orthogonal band  568  0.3392
Information: wavefunction orthogonal band  570  0.7970
Information: wavefunction orthogonal band  573  0.5159
Information: wavefunction orthogonal band  582  0.8456
Information: wavefunction orthogonal band  583  0.8320
Information: wavefunction orthogonal band  586  0.3908
Information: wavefunction orthogonal band  587  0.8215
Information: wavefunction orthogonal band  595  0.6703
Information: wavefunction orthogonal band  596  0.8273
Information: wavefunction orthogonal band  600  0.8792
Information: wavefunction orthogonal band  602  0.6967
Information: wavefunction orthogonal band  603  0.8150
Information: wavefunction orthogonal band  604  0.3626
Information: wavefunction orthogonal band  606  0.6317
Information: wavefunction orthogonal band  607  0.8394
Information: wavefunction orthogonal band  608  0.7705
Information: wavefunction orthogonal band  609  0.6199
Information: wavefunction orthogonal band  610  0.8848
Information: wavefunction orthogonal band  611  0.5382
Information: wavefunction orthogonal band  612  0.7385
Information: wavefunction orthogonal band  613  0.5844
Information: wavefunction orthogonal band  614  0.8323
Information: wavefunction orthogonal band  615  0.8323
Information: wavefunction orthogonal band  616  0.0881
Information: wavefunction orthogonal band  617  0.5881
Information: wavefunction orthogonal band  619  0.8364
Information: wavefunction orthogonal band  620  0.6712
Information: wavefunction orthogonal band  624  0.7204
Information: wavefunction orthogonal band  625  0.8177
Information: wavefunction orthogonal band  627  0.3053
Information: wavefunction orthogonal band  628  0.4763
Information: wavefunction orthogonal band  629  0.7316
Information: wavefunction orthogonal band  630  0.6655
Information: wavefunction orthogonal band  631  0.8945
Information: wavefunction orthogonal band  635  0.8851
Information: wavefunction orthogonal band  636  0.8862
Information: wavefunction orthogonal band  637  0.2997
Information: wavefunction orthogonal band  638  0.7735
Information: wavefunction orthogonal band  642  0.8754
Information: wavefunction orthogonal band  644  0.8999
Information: wavefunction orthogonal band  651  0.8977
Information: wavefunction orthogonal band  652  0.8923
Information: wavefunction orthogonal band  654  0.8847
Information: wavefunction orthogonal band  656  0.8811
Information: wavefunction orthogonal band  658  0.8878
Information: wavefunction orthogonal band  661  0.8615
Information: wavefunction orthogonal band  662  0.8790
Information: wavefunction orthogonal band  664  0.8863
Information: wavefunction orthogonal band  665  0.8970
Information: wavefunction orthogonal band  667  0.8774
Information: wavefunction orthogonal band  669  0.8933
Information: wavefunction orthogonal band  677  0.8999
Information: wavefunction orthogonal band  679  0.8870
Information: wavefunction orthogonal band  696  0.8749
Information: wavefunction orthogonal band  697  0.8847
Information: wavefunction orthogonal band  705  0.7393
Information: wavefunction orthogonal band  753  0.8466
Information: wavefunction orthogonal band  754  0.8849
Information: wavefunction orthogonal band  755  0.7012
Information: wavefunction orthogonal band  756  0.7989
Information: wavefunction orthogonal band  757  0.6068
Information: wavefunction orthogonal band  759  0.8799
Information: wavefunction orthogonal band  760  0.8925
Information: wavefunction orthogonal band  761  0.0687
Information: wavefunction orthogonal band  762  0.0597
Information: wavefunction orthogonal band  763  0.0616
Information: wavefunction orthogonal band  764  0.0630
Information: wavefunction orthogonal band  765  0.0567
Information: wavefunction orthogonal band  766  0.0608
Information: wavefunction orthogonal band  767  0.0531
Information: wavefunction orthogonal band  768  0.0480
 bond charge predicted
 prediction of wavefunctions
Calculation finished on Sat May 17 12:48:33 +03 2025. Please check the OUTCAR file for details.
