<?xml version="1.0" encoding="ISO-8859-1"?>
<modeling>
 <generator>
  <i name="program" type="string">vasp </i>
  <i name="version" type="string">6.4.3  </i>
  <i name="subversion" type="string">19Mar24 (build Mar 01 2025 18:03:59) gamma-only                       parallel </i>
  <i name="platform" type="string">Shaheen </i>
  <i name="date" type="string">2025 05 17 </i>
  <i name="time" type="string">12:32:37 </i>
 </generator>
 <incar>
  <i type="int" name="ISTART">     1</i>
  <i type="string" name="PREC">Normal      (Precision level: Normal or Accurate, set Accurate when perform structure lattice relaxation calculation)</i>
  <i type="string" name="ALGO">Fast          (Algorithm: Fast, Normal, All, Damped)</i>
  <i type="logical" name="ADDGRID"> T  </i>
  <i type="int" name="ISPIN">     2</i>
  <i type="int" name="NELM">    90</i>
  <i type="int" name="NELMIN">     6</i>
  <i type="int" name="IBRION">     0</i>
  <i name="EDIFF">      0.00010000</i>
  <i name="EDIFFG">     -0.02000000</i>
  <i type="int" name="NSW">   300</i>
  <i type="int" name="ISIF">     2</i>
  <i type="int" name="NBLOCK">     1</i>
  <i type="int" name="KBLOCK">     1</i>
  <i name="ENCUT">    520.00000000</i>
  <i name="POTIM">     20.00000000</i>
  <i name="TEBEG">    300.00000000</i>
  <i name="TEEND">    300.00000000</i>
  <v name="MAGMOM">      1.00000000      1.00000000      1.00000000      1.00000000      1.00000000      1.00000000      1.00000000      1.00000000      1.00000000      1.00000000      1.00000000      1.00000000      1.00000000      1.00000000      1.00000000      1.00000000      1.00000000      1.00000000      1.00000000      1.00000000
      1.00000000      1.00000000      1.00000000      1.00000000      1.00000000      1.00000000      1.00000000      1.00000000      1.00000000      1.00000000      1.00000000      1.00000000      0.60000000      0.60000000      0.60000000      0.60000000      0.60000000      0.60000000      0.60000000      0.60000000
      0.60000000      0.60000000      0.60000000      0.60000000      0.60000000      0.60000000      0.60000000      0.60000000      0.60000000      0.60000000      0.60000000      0.60000000      0.60000000      0.60000000      0.60000000      0.60000000      0.60000000      0.60000000      0.60000000      0.60000000
      0.60000000      0.60000000      0.60000000      0.60000000      0.60000000      0.60000000      0.60000000      0.60000000      0.60000000      0.60000000      0.60000000      0.60000000      0.60000000      0.60000000      0.60000000      0.60000000      0.60000000      0.60000000      0.60000000      0.60000000
      0.60000000      0.60000000      0.60000000      0.60000000      0.60000000      0.60000000      0.60000000      0.60000000      0.60000000      0.60000000      0.60000000      0.60000000      0.60000000      0.60000000      0.60000000      0.60000000      0.60000000      0.60000000      0.60000000      0.60000000
      0.60000000      0.60000000      0.60000000      0.60000000      0.60000000      0.60000000      0.60000000      0.60000000      0.60000000      0.60000000      0.60000000      0.60000000      0.60000000      0.60000000      0.60000000      0.60000000      0.60000000      0.60000000      0.60000000      0.60000000
      0.60000000      0.60000000      0.60000000      0.60000000      0.60000000      0.60000000      0.60000000      0.60000000      0.60000000      0.60000000      0.60000000      0.60000000      0.60000000      0.60000000      0.60000000      0.60000000      0.60000000      0.60000000      0.60000000      0.60000000
      0.60000000      0.60000000      0.60000000      0.60000000      0.60000000      0.60000000      0.60000000      0.60000000      0.60000000      0.60000000      0.60000000      0.60000000      0.60000000      0.60000000      0.01000000      0.01000000      0.01000000      0.01000000      0.01000000      0.01000000
      0.01000000      0.01000000      0.01000000      0.01000000      0.01000000      0.01000000      0.01000000      0.01000000      0.01000000      0.01000000      0.01000000      0.01000000      0.01000000      0.01000000      0.01000000      0.01000000      0.01000000      0.01000000      0.01000000      0.01000000
      0.01000000      0.01000000      0.01000000      0.01000000      0.01000000      0.01000000      0.01000000      0.01000000      0.01000000      0.01000000      0.01000000      0.01000000      0.01000000      0.01000000</v>
  <i type="string" name="LREAL">Auto       (Projection operators: automatic)</i>
  <i type="int" name="ISMEAR">     0</i>
  <i name="SIGMA">      0.05000000</i>
  <i type="int" name="LMAXMIX">     6</i>
  <i type="logical" name="LWAVE"> F  </i>
  <i type="logical" name="LCHARG"> F  </i>
  <i type="logical" name="LASPH"> T  </i>
  <i type="logical" name="LDAU"> T  </i>
  <i type="int" name="LDAUTYPE">     2</i>
  <v type="int" name="LDAUL">     3     2    -1    -1</v>
  <v name="LDAUU">      5.00000000      2.00000000      0.00000000      0.00000000</v>
  <v name="LDAUJ">      0.00000000      0.00000000      0.00000000      0.00000000</v>
  <i type="int" name="IVDW">    12</i>
 </incar>
 <primitive_cell>
  <structure name="primitive_cell" >
   <crystal>
    <varray name="basis" >
     <v>      15.46430000       0.00000000       0.00000000 </v>
     <v>      -7.73215000      13.39247665       0.00000000 </v>
     <v>       0.00000000       0.00000000      21.04820000 </v>
    </varray>
    <i name="volume">   4359.19328417 </i>
    <varray name="rec_basis" >
     <v>       0.06466507       0.03733439       0.00000000 </v>
     <v>       0.00000000       0.07466879       0.00000000 </v>
     <v>       0.00000000       0.00000000       0.04751000 </v>
    </varray>
   </crystal>
   <varray name="positions" >
    <v>       0.00091000       0.99975000       0.35854000 </v>
    <v>       0.16667000       0.08333000       0.20781000 </v>
    <v>       0.24517000       0.99517000       0.35738000 </v>
    <v>       0.41667000       0.08333000       0.20781000 </v>
    <v>       0.49705000       0.00169000       0.36006000 </v>
    <v>       0.66667000       0.08333000       0.20781000 </v>
    <v>       0.75659000       0.00320000       0.35806000 </v>
    <v>       0.91667000       0.08333000       0.20781000 </v>
    <v>       0.99923000       0.24978000       0.35837000 </v>
    <v>       0.16667000       0.33333000       0.20781000 </v>
    <v>       0.24733000       0.25134000       0.36064000 </v>
    <v>       0.41667000       0.33333000       0.20781000 </v>
    <v>       0.50295000       0.24840000       0.36204000 </v>
    <v>       0.66667000       0.33333000       0.20781000 </v>
    <v>       0.75101000       0.24968000       0.35809000 </v>
    <v>       0.91667000       0.33333000       0.20781000 </v>
    <v>       0.00103000       0.49979000       0.35853000 </v>
    <v>       0.16667000       0.58333000       0.20781000 </v>
    <v>       0.24493000       0.49460000       0.35728000 </v>
    <v>       0.41667000       0.58333000       0.20781000 </v>
    <v>       0.49687000       0.50186000       0.35988000 </v>
    <v>       0.66667000       0.58333000       0.20781000 </v>
    <v>       0.75701000       0.50333000       0.35797000 </v>
    <v>       0.91667000       0.58333000       0.20781000 </v>
    <v>       0.99919000       0.74994000       0.35832000 </v>
    <v>       0.16667000       0.83333000       0.20781000 </v>
    <v>       0.24701000       0.75158000       0.36037000 </v>
    <v>       0.41667000       0.83333000       0.20781000 </v>
    <v>       0.50311000       0.74875000       0.36208000 </v>
    <v>       0.66667000       0.83333000       0.20781000 </v>
    <v>       0.75090000       0.74973000       0.35813000 </v>
    <v>       0.91667000       0.83333000       0.20781000 </v>
    <v>       0.57959000       0.91854000       0.50140000 </v>
    <v>       0.32998000       0.67086000       0.50177000 </v>
    <v>       0.57831000       0.42146000       0.50220000 </v>
    <v>       0.33332000       0.16933000       0.50096000 </v>
    <v>       0.08333000       0.16667000       0.17032000 </v>
    <v>       0.16689000       0.08376000       0.32028000 </v>
    <v>       0.08317000       0.16681000       0.39582000 </v>
    <v>       0.00000000       0.00000000       0.24530000 </v>
    <v>       0.16667000       0.08333000       0.09533000 </v>
    <v>       0.20923000       0.06896000       0.50369000 </v>
    <v>       0.33333000       0.16667000       0.17032000 </v>
    <v>       0.41701000       0.08682000       0.32116000 </v>
    <v>       0.32499000       0.15778000       0.39892000 </v>
    <v>       0.25000000       0.00000000       0.24530000 </v>
    <v>       0.41667000       0.08333000       0.09533000 </v>
    <v>       0.58333000       0.16667000       0.17032000 </v>
    <v>       0.66725000       0.08225000       0.32016000 </v>
    <v>       0.58591000       0.16578000       0.39351000 </v>
    <v>       0.50000000       0.00000000       0.24530000 </v>
    <v>       0.66667000       0.08333000       0.09533000 </v>
    <v>       0.67875000       0.04287000       0.50554000 </v>
    <v>       0.83333000       0.16667000       0.17032000 </v>
    <v>       0.91831000       0.08407000       0.31961000 </v>
    <v>       0.83578000       0.16791000       0.39472000 </v>
    <v>       0.75000000       0.00000000       0.24530000 </v>
    <v>       0.91667000       0.08333000       0.09533000 </v>
    <v>       0.08333000       0.41667000       0.17032000 </v>
    <v>       0.16285000       0.33056000       0.31920000 </v>
    <v>       0.08110000       0.41433000       0.39479000 </v>
    <v>       0.00000000       0.25000000       0.24530000 </v>
    <v>       0.16667000       0.33333000       0.09533000 </v>
    <v>       0.33333000       0.41667000       0.17032000 </v>
    <v>       0.42027000       0.33246000       0.32494000 </v>
    <v>       0.32743000       0.41704000       0.38879000 </v>
    <v>       0.25000000       0.25000000       0.24530000 </v>
    <v>       0.41667000       0.33333000       0.09533000 </v>
    <v>       0.47610000       0.27461000       0.47158000 </v>
    <v>       0.58333000       0.41667000       0.17032000 </v>
    <v>       0.66649000       0.33525000       0.32182000 </v>
    <v>       0.59483000       0.42741000       0.40172000 </v>
    <v>       0.50000000       0.25000000       0.24530000 </v>
    <v>       0.66667000       0.33333000       0.09533000 </v>
    <v>       0.83333000       0.41667000       0.17032000 </v>
    <v>       0.91616000       0.33290000       0.31951000 </v>
    <v>       0.83760000       0.41856000       0.39430000 </v>
    <v>       0.75000000       0.25000000       0.24530000 </v>
    <v>       0.91667000       0.33333000       0.09533000 </v>
    <v>       0.08333000       0.66667000       0.17032000 </v>
    <v>       0.16717000       0.58384000       0.32030000 </v>
    <v>       0.08288000       0.66675000       0.39579000 </v>
    <v>       0.00000000       0.50000000       0.24530000 </v>
    <v>       0.16667000       0.58333000       0.09533000 </v>
    <v>       0.20575000       0.57219000       0.50785000 </v>
    <v>       0.33333000       0.66667000       0.17032000 </v>
    <v>       0.41635000       0.58690000       0.32140000 </v>
    <v>       0.32333000       0.65643000       0.40090000 </v>
    <v>       0.25000000       0.50000000       0.24530000 </v>
    <v>       0.41667000       0.58333000       0.09533000 </v>
    <v>       0.58333000       0.66667000       0.17032000 </v>
    <v>       0.66699000       0.58173000       0.32029000 </v>
    <v>       0.58541000       0.66550000       0.39346000 </v>
    <v>       0.50000000       0.50000000       0.24530000 </v>
    <v>       0.66667000       0.58333000       0.09533000 </v>
    <v>       0.67520000       0.54612000       0.50952000 </v>
    <v>       0.83333000       0.66667000       0.17032000 </v>
    <v>       0.91835000       0.58411000       0.31962000 </v>
    <v>       0.83545000       0.66771000       0.39488000 </v>
    <v>       0.75000000       0.50000000       0.24530000 </v>
    <v>       0.91667000       0.58333000       0.09533000 </v>
    <v>       0.08333000       0.91667000       0.17032000 </v>
    <v>       0.16288000       0.83070000       0.31919000 </v>
    <v>       0.08084000       0.91411000       0.39451000 </v>
    <v>       0.00000000       0.75000000       0.24530000 </v>
    <v>       0.16667000       0.83333000       0.09533000 </v>
    <v>       0.33333000       0.91667000       0.17032000 </v>
    <v>       0.41918000       0.83126000       0.32496000 </v>
    <v>       0.32792000       0.91746000       0.38854000 </v>
    <v>       0.25000000       0.75000000       0.24530000 </v>
    <v>       0.41667000       0.83333000       0.09533000 </v>
    <v>       0.47573000       0.77475000       0.47149000 </v>
    <v>       0.58333000       0.91667000       0.17032000 </v>
    <v>       0.66673000       0.83482000       0.32171000 </v>
    <v>       0.59388000       0.92605000       0.39983000 </v>
    <v>       0.50000000       0.75000000       0.24530000 </v>
    <v>       0.66667000       0.83333000       0.09533000 </v>
    <v>       0.83333000       0.91667000       0.17032000 </v>
    <v>       0.91590000       0.83265000       0.31948000 </v>
    <v>       0.83757000       0.91845000       0.39429000 </v>
    <v>       0.75000000       0.75000000       0.24530000 </v>
    <v>       0.91667000       0.83333000       0.09533000 </v>
    <v>       0.48571000       0.45179000       0.47583000 </v>
    <v>       0.29760000       0.76277000       0.47702000 </v>
    <v>       0.48738000       0.95074000       0.47709000 </v>
    <v>       0.53345000       0.38379000       0.57900000 </v>
    <v>       0.36614000       0.71298000       0.57922000 </v>
    <v>       0.54056000       0.88522000       0.57961000 </v>
    <v>       0.65773000       0.37041000       0.49314000 </v>
    <v>       0.38270000       0.59325000       0.49106000 </v>
    <v>       0.65717000       0.86563000       0.49029000 </v>
    <v>       0.29950000       0.26118000       0.47866000 </v>
    <v>       0.36536000       0.20475000       0.57981000 </v>
    <v>       0.38730000       0.09321000       0.48767000 </v>
    <v>       0.61857000       0.39899000       0.74396000 </v>
    <v>       0.76885000       0.31913000       0.67741000 </v>
    <v>       0.91724000       0.54832000       0.74396000 </v>
    <v>       0.06658000       0.62299000       0.74396000 </v>
    <v>       0.31808000       0.64770000       0.74991000 </v>
    <v>       0.41816000       0.55574000       0.69015000 </v>
    <v>       0.79924000       0.81594000       0.73728000 </v>
    <v>       0.45788000       0.47226000       0.61851000 </v>
    <v>       0.40447000       0.26561000       0.65931000 </v>
    <v>       0.19622000       0.42436000       0.65152000 </v>
    <v>       0.71684000       0.70508000       0.69015000 </v>
    <v>       0.57918000       0.08502000       0.52292000 </v>
    <v>       0.30050000       0.71362000       0.65931000 </v>
    <v>       0.88746000       0.24043000       0.54659000 </v>
    <v>       0.11194000       0.14567000       0.74396000 </v>
    <v>       0.26153000       0.11894000       0.65561000 </v>
    <v>       0.41062000       0.29501000       0.74396000 </v>
    <v>       0.24158000       0.94704000       0.65152000 </v>
    <v>       0.08833000       0.69734000       0.61660000 </v>
    <v>       0.58048000       0.84072000       0.80643000 </v>
    <v>       0.59569000       0.42955000       0.77493000 </v>
    <v>       0.69108000       0.43807000       0.74665000 </v>
    <v>       0.74597000       0.34970000       0.70838000 </v>
    <v>       0.84136000       0.35822000       0.68010000 </v>
    <v>       0.89437000       0.57889000       0.77493000 </v>
    <v>       0.98976000       0.58741000       0.74665000 </v>
    <v>       0.04371000       0.65356000       0.77493000 </v>
    <v>       0.13910000       0.66208000       0.74665000 </v>
    <v>       0.29521000       0.67827000       0.78088000 </v>
    <v>       0.39060000       0.68678000       0.75260000 </v>
    <v>       0.39528000       0.58631000       0.72112000 </v>
    <v>       0.49067000       0.59483000       0.69284000 </v>
    <v>       0.77636000       0.84651000       0.76825000 </v>
    <v>       0.87175000       0.85502000       0.73997000 </v>
    <v>       0.43500000       0.50282000       0.64948000 </v>
    <v>       0.53039000       0.51134000       0.62119000 </v>
    <v>       0.38160000       0.29618000       0.69028000 </v>
    <v>       0.47698000       0.30470000       0.66200000 </v>
    <v>       0.17334000       0.45493000       0.68249000 </v>
    <v>       0.26873000       0.46345000       0.65421000 </v>
    <v>       0.69396000       0.73565000       0.72112000 </v>
    <v>       0.78935000       0.74416000       0.69284000 </v>
    <v>       0.55631000       0.11559000       0.55389000 </v>
    <v>       0.65170000       0.12411000       0.52561000 </v>
    <v>       0.27762000       0.74419000       0.69028000 </v>
    <v>       0.37301000       0.75271000       0.66200000 </v>
    <v>       0.86459000       0.27100000       0.57755000 </v>
    <v>       0.95998000       0.27952000       0.54927000 </v>
    <v>       0.08907000       0.17624000       0.77493000 </v>
    <v>       0.18446000       0.18476000       0.74665000 </v>
    <v>       0.23865000       0.14951000       0.68658000 </v>
    <v>       0.33404000       0.15803000       0.65830000 </v>
    <v>       0.38774000       0.32558000       0.77493000 </v>
    <v>       0.48313000       0.33409000       0.74665000 </v>
    <v>       0.21870000       0.97761000       0.68249000 </v>
    <v>       0.31409000       0.98613000       0.65421000 </v>
    <v>       0.06546000       0.72791000       0.64757000 </v>
    <v>       0.16085000       0.73642000       0.61928000 </v>
    <v>       0.55760000       0.87129000       0.83740000 </v>
    <v>       0.65299000       0.87981000       0.80912000 </v>
   </varray>
  </structure>
  <varray name="primitive_index" >
   <v type="int" >        1 </v>
   <v type="int" >        2 </v>
   <v type="int" >        3 </v>
   <v type="int" >        4 </v>
   <v type="int" >        5 </v>
   <v type="int" >        6 </v>
   <v type="int" >        7 </v>
   <v type="int" >        8 </v>
   <v type="int" >        9 </v>
   <v type="int" >       10 </v>
   <v type="int" >       11 </v>
   <v type="int" >       12 </v>
   <v type="int" >       13 </v>
   <v type="int" >       14 </v>
   <v type="int" >       15 </v>
   <v type="int" >       16 </v>
   <v type="int" >       17 </v>
   <v type="int" >       18 </v>
   <v type="int" >       19 </v>
   <v type="int" >       20 </v>
   <v type="int" >       21 </v>
   <v type="int" >       22 </v>
   <v type="int" >       23 </v>
   <v type="int" >       24 </v>
   <v type="int" >       25 </v>
   <v type="int" >       26 </v>
   <v type="int" >       27 </v>
   <v type="int" >       28 </v>
   <v type="int" >       29 </v>
   <v type="int" >       30 </v>
   <v type="int" >       31 </v>
   <v type="int" >       32 </v>
   <v type="int" >       33 </v>
   <v type="int" >       34 </v>
   <v type="int" >       35 </v>
   <v type="int" >       36 </v>
   <v type="int" >       37 </v>
   <v type="int" >       38 </v>
   <v type="int" >       39 </v>
   <v type="int" >       40 </v>
   <v type="int" >       41 </v>
   <v type="int" >       42 </v>
   <v type="int" >       43 </v>
   <v type="int" >       44 </v>
   <v type="int" >       45 </v>
   <v type="int" >       46 </v>
   <v type="int" >       47 </v>
   <v type="int" >       48 </v>
   <v type="int" >       49 </v>
   <v type="int" >       50 </v>
   <v type="int" >       51 </v>
   <v type="int" >       52 </v>
   <v type="int" >       53 </v>
   <v type="int" >       54 </v>
   <v type="int" >       55 </v>
   <v type="int" >       56 </v>
   <v type="int" >       57 </v>
   <v type="int" >       58 </v>
   <v type="int" >       59 </v>
   <v type="int" >       60 </v>
   <v type="int" >       61 </v>
   <v type="int" >       62 </v>
   <v type="int" >       63 </v>
   <v type="int" >       64 </v>
   <v type="int" >       65 </v>
   <v type="int" >       66 </v>
   <v type="int" >       67 </v>
   <v type="int" >       68 </v>
   <v type="int" >       69 </v>
   <v type="int" >       70 </v>
   <v type="int" >       71 </v>
   <v type="int" >       72 </v>
   <v type="int" >       73 </v>
   <v type="int" >       74 </v>
   <v type="int" >       75 </v>
   <v type="int" >       76 </v>
   <v type="int" >       77 </v>
   <v type="int" >       78 </v>
   <v type="int" >       79 </v>
   <v type="int" >       80 </v>
   <v type="int" >       81 </v>
   <v type="int" >       82 </v>
   <v type="int" >       83 </v>
   <v type="int" >       84 </v>
   <v type="int" >       85 </v>
   <v type="int" >       86 </v>
   <v type="int" >       87 </v>
   <v type="int" >       88 </v>
   <v type="int" >       89 </v>
   <v type="int" >       90 </v>
   <v type="int" >       91 </v>
   <v type="int" >       92 </v>
   <v type="int" >       93 </v>
   <v type="int" >       94 </v>
   <v type="int" >       95 </v>
   <v type="int" >       96 </v>
   <v type="int" >       97 </v>
   <v type="int" >       98 </v>
   <v type="int" >       99 </v>
   <v type="int" >      100 </v>
   <v type="int" >      101 </v>
   <v type="int" >      102 </v>
   <v type="int" >      103 </v>
   <v type="int" >      104 </v>
   <v type="int" >      105 </v>
   <v type="int" >      106 </v>
   <v type="int" >      107 </v>
   <v type="int" >      108 </v>
   <v type="int" >      109 </v>
   <v type="int" >      110 </v>
   <v type="int" >      111 </v>
   <v type="int" >      112 </v>
   <v type="int" >      113 </v>
   <v type="int" >      114 </v>
   <v type="int" >      115 </v>
   <v type="int" >      116 </v>
   <v type="int" >      117 </v>
   <v type="int" >      118 </v>
   <v type="int" >      119 </v>
   <v type="int" >      120 </v>
   <v type="int" >      121 </v>
   <v type="int" >      122 </v>
   <v type="int" >      123 </v>
   <v type="int" >      124 </v>
   <v type="int" >      125 </v>
   <v type="int" >      126 </v>
   <v type="int" >      127 </v>
   <v type="int" >      128 </v>
   <v type="int" >      129 </v>
   <v type="int" >      130 </v>
   <v type="int" >      131 </v>
   <v type="int" >      132 </v>
   <v type="int" >      133 </v>
   <v type="int" >      134 </v>
   <v type="int" >      135 </v>
   <v type="int" >      136 </v>
   <v type="int" >      137 </v>
   <v type="int" >      138 </v>
   <v type="int" >      139 </v>
   <v type="int" >      140 </v>
   <v type="int" >      141 </v>
   <v type="int" >      142 </v>
   <v type="int" >      143 </v>
   <v type="int" >      144 </v>
   <v type="int" >      145 </v>
   <v type="int" >      146 </v>
   <v type="int" >      147 </v>
   <v type="int" >      148 </v>
   <v type="int" >      149 </v>
   <v type="int" >      150 </v>
   <v type="int" >      151 </v>
   <v type="int" >      152 </v>
   <v type="int" >      153 </v>
   <v type="int" >      154 </v>
   <v type="int" >      155 </v>
   <v type="int" >      156 </v>
   <v type="int" >      157 </v>
   <v type="int" >      158 </v>
   <v type="int" >      159 </v>
   <v type="int" >      160 </v>
   <v type="int" >      161 </v>
   <v type="int" >      162 </v>
   <v type="int" >      163 </v>
   <v type="int" >      164 </v>
   <v type="int" >      165 </v>
   <v type="int" >      166 </v>
   <v type="int" >      167 </v>
   <v type="int" >      168 </v>
   <v type="int" >      169 </v>
   <v type="int" >      170 </v>
   <v type="int" >      171 </v>
   <v type="int" >      172 </v>
   <v type="int" >      173 </v>
   <v type="int" >      174 </v>
   <v type="int" >      175 </v>
   <v type="int" >      176 </v>
   <v type="int" >      177 </v>
   <v type="int" >      178 </v>
   <v type="int" >      179 </v>
   <v type="int" >      180 </v>
   <v type="int" >      181 </v>
   <v type="int" >      182 </v>
   <v type="int" >      183 </v>
   <v type="int" >      184 </v>
   <v type="int" >      185 </v>
   <v type="int" >      186 </v>
   <v type="int" >      187 </v>
   <v type="int" >      188 </v>
   <v type="int" >      189 </v>
   <v type="int" >      190 </v>
   <v type="int" >      191 </v>
   <v type="int" >      192 </v>
   <v type="int" >      193 </v>
   <v type="int" >      194 </v>
  </varray>
 </primitive_cell>
 <kpoints>
  <generation param="Gamma">
   <v type="int" name="divisions">       1        1        1 </v>
   <v name="usershift">      0.00000000       0.00000000       0.00000000 </v>
   <v name="genvec1">      1.00000000       0.00000000       0.00000000 </v>
   <v name="genvec2">      0.00000000       1.00000000       0.00000000 </v>
   <v name="genvec3">      0.00000000       0.00000000       1.00000000 </v>
   <v name="shift">      0.00000000       0.00000000       0.00000000 </v>
  </generation>
  <varray name="kpointlist" >
   <v>       0.00000000       0.00000000       0.00000000 </v>
  </varray>
  <varray name="weights" >
   <v>       1.00000000 </v>
  </varray>
 </kpoints>
 <parameters>
  <separator name="general" >
   <i type="string" name="SYSTEM">unknown system</i>
   <i type="logical" name="LCOMPAT"> F  </i>
  </separator>
  <separator name="electronic" >
   <i type="string" name="PREC">normal</i>
   <i name="ENMAX">    520.00000000</i>
   <i name="ENAUG">    605.39200000</i>
   <i name="EDIFF">      0.00010000</i>
   <i type="int" name="IALGO">    68</i>
   <i type="int" name="IWAVPR">    12</i>
   <i type="int" name="NBANDS">   768</i>
   <i type="int" name="NBANDSLOW">    -1</i>
   <i type="int" name="NBANDSHIGH">    -1</i>
   <i name="NELECT">   1168.00000000</i>
   <i type="int" name="TURBO">     0</i>
   <i type="int" name="IRESTART">     0</i>
   <i type="int" name="NREBOOT">     0</i>
   <i type="int" name="NMIN">     0</i>
   <i name="EREF">      0.00000000</i>
   <separator name="electronic smearing" >
    <i type="int" name="ISMEAR">     0</i>
    <i name="SIGMA">      0.05000000</i>
    <i name="KSPACING">      0.50000000</i>
    <i type="logical" name="KGAMMA"> T  </i>
    <i type="logical" name="KBLOWUP"> T  </i>
   </separator>
   <separator name="electronic projectors" >
    <i type="logical" name="LREAL"> T  </i>
    <v name="ROPT">     -0.00050000     -0.00050000     -0.00050000     -0.00050000</v>
    <i type="int" name="LMAXPAW">  -100</i>
    <i type="int" name="LMAXMIX">     6</i>
    <i type="logical" name="NLSPLINE"> F  </i>
   </separator>
   <separator name="electronic startup" >
    <i type="int" name="ISTART">     0</i>
    <i type="int" name="ICHARG">     2</i>
    <i type="int" name="INIWAV">     1</i>
   </separator>
   <separator name="electronic spin" >
    <i type="int" name="ISPIN">     2</i>
    <i type="logical" name="LNONCOLLINEAR"> F  </i>
    <v name="MAGMOM">      1.00000000      1.00000000      1.00000000      1.00000000      1.00000000      1.00000000      1.00000000      1.00000000      1.00000000      1.00000000      1.00000000      1.00000000      1.00000000      1.00000000      1.00000000      1.00000000      1.00000000      1.00000000      1.00000000      1.00000000
      1.00000000      1.00000000      1.00000000      1.00000000      1.00000000      1.00000000      1.00000000      1.00000000      1.00000000      1.00000000      1.00000000      1.00000000      0.60000000      0.60000000      0.60000000      0.60000000      0.60000000      0.60000000      0.60000000      0.60000000
      0.60000000      0.60000000      0.60000000      0.60000000      0.60000000      0.60000000      0.60000000      0.60000000      0.60000000      0.60000000      0.60000000      0.60000000      0.60000000      0.60000000      0.60000000      0.60000000      0.60000000      0.60000000      0.60000000      0.60000000
      0.60000000      0.60000000      0.60000000      0.60000000      0.60000000      0.60000000      0.60000000      0.60000000      0.60000000      0.60000000      0.60000000      0.60000000      0.60000000      0.60000000      0.60000000      0.60000000      0.60000000      0.60000000      0.60000000      0.60000000
      0.60000000      0.60000000      0.60000000      0.60000000      0.60000000      0.60000000      0.60000000      0.60000000      0.60000000      0.60000000      0.60000000      0.60000000      0.60000000      0.60000000      0.60000000      0.60000000      0.60000000      0.60000000      0.60000000      0.60000000
      0.60000000      0.60000000      0.60000000      0.60000000      0.60000000      0.60000000      0.60000000      0.60000000      0.60000000      0.60000000      0.60000000      0.60000000      0.60000000      0.60000000      0.60000000      0.60000000      0.60000000      0.60000000      0.60000000      0.60000000
      0.60000000      0.60000000      0.60000000      0.60000000      0.60000000      0.60000000      0.60000000      0.60000000      0.60000000      0.60000000      0.60000000      0.60000000      0.60000000      0.60000000      0.60000000      0.60000000      0.60000000      0.60000000      0.60000000      0.60000000
      0.60000000      0.60000000      0.60000000      0.60000000      0.60000000      0.60000000      0.60000000      0.60000000      0.60000000      0.60000000      0.60000000      0.60000000      0.60000000      0.60000000      0.01000000      0.01000000      0.01000000      0.01000000      0.01000000      0.01000000
      0.01000000      0.01000000      0.01000000      0.01000000      0.01000000      0.01000000      0.01000000      0.01000000      0.01000000      0.01000000      0.01000000      0.01000000      0.01000000      0.01000000      0.01000000      0.01000000      0.01000000      0.01000000      0.01000000      0.01000000
      0.01000000      0.01000000      0.01000000      0.01000000      0.01000000      0.01000000      0.01000000      0.01000000      0.01000000      0.01000000      0.01000000      0.01000000      0.01000000      0.01000000</v>
    <i name="NUPDOWN">     -1.00000000</i>
    <i type="logical" name="LSORBIT"> F  </i>
    <v name="SAXIS">      0.00000000      0.00000000      1.00000000</v>
    <i type="logical" name="LSPIRAL"> F  </i>
    <v name="QSPIRAL">      0.00000000      0.00000000      0.00000000</v>
    <i type="logical" name="LZEROZ"> F  </i>
   </separator>
   <separator name="electronic exchange-correlation" >
    <i type="logical" name="LASPH"> T  </i>
   </separator>
   <separator name="electronic convergence" >
    <i type="int" name="NELM">    90</i>
    <i type="int" name="NELMDL">     0</i>
    <i type="int" name="NELMIN">     6</i>
    <i name="ENINI">    520.00000000</i>
    <separator name="electronic convergence detail" >
     <i type="logical" name="LDIAG"> T  </i>
     <i type="logical" name="LSUBROT"> F  </i>
     <i name="WEIMIN">      0.00100000</i>
     <i name="EBREAK">      0.00000003</i>
     <i name="DEPER">      0.30000000</i>
     <i type="int" name="NRMM">     4</i>
     <i name="TIME">      0.40000000</i>
    </separator>
   </separator>
   <separator name="electronic mixer" >
    <i name="AMIX">      0.40000000</i>
    <i name="BMIX">      1.00000000</i>
    <i name="AMIN">      0.10000000</i>
    <i name="AMIX_MAG">      1.60000000</i>
    <i name="BMIX_MAG">      1.00000000</i>
    <separator name="electronic mixer details" >
     <i type="int" name="IMIX">     4</i>
     <i type="logical" name="MIXFIRST"> F  </i>
     <i type="int" name="MAXMIX">   -45</i>
     <i name="WC">    100.00000000</i>
     <i type="int" name="INIMIX">     1</i>
     <i type="int" name="MIXPRE">     1</i>
     <i type="int" name="MREMOVE">     5</i>
    </separator>
   </separator>
   <separator name="electronic dipolcorrection" >
    <i type="logical" name="LDIPOL"> F  </i>
    <i type="logical" name="LMONO"> F  </i>
    <i type="int" name="IDIPOL">     0</i>
    <i name="EPSILON">      1.00000000</i>
    <v name="DIPOL">   -100.00000000   -100.00000000   -100.00000000</v>
    <i name="EFIELD">      0.00000000</i>
    <i type="logical" name="LVACPOTAV"> F  </i>
   </separator>
  </separator>
  <separator name="grids" >
   <i type="int" name="NGX">    90</i>
   <i type="int" name="NGY">    90</i>
   <i type="int" name="NGZ">   120</i>
   <i type="int" name="NGXF">   180</i>
   <i type="int" name="NGYF">   180</i>
   <i type="int" name="NGZF">   240</i>
   <i type="logical" name="ADDGRID"> T  </i>
  </separator>
  <separator name="ionic" >
   <i type="int" name="NSW">   300</i>
   <i type="int" name="IBRION">     0</i>
   <i type="int" name="MDALGO">     0</i>
   <i type="int" name="ISIF">     2</i>
   <i name="PSTRESS">      0.00000000</i>
   <i name="EDIFFG">     -0.02000000</i>
   <i type="int" name="NFREE">     0</i>
   <i name="POTIM">     20.00000000</i>
   <i name="SMASS">     -3.00000000</i>
   <i name="SCALEE">      1.00000000</i>
  </separator>
  <separator name="ionic md" >
   <i name="TEBEG">    300.00000000</i>
   <i name="TEEND">    300.00000000</i>
   <i type="int" name="NBLOCK">     1</i>
   <i type="int" name="KBLOCK">     1</i>
   <i type="int" name="NPACO">   256</i>
   <i name="APACO">     10.00000000</i>
  </separator>
  <separator name="symmetry" >
   <i type="int" name="ISYM">     2</i>
   <i name="SYMPREC">      0.00001000</i>
  </separator>
  <separator name="dos" >
   <i type="int" name="LORBIT">     0</i>
   <v name="RWIGS">     -1.00000000     -1.00000000     -1.00000000     -1.00000000</v>
   <i type="int" name="NEDOS">   301</i>
   <i name="EMIN">     10.00000000</i>
   <i name="EMAX">    -10.00000000</i>
   <i name="EFERMI">      0.00000000</i>
  </separator>
  <separator name="writing" >
   <i type="int" name="NWRITE">     2</i>
   <i type="logical" name="LWAVE"> F  </i>
   <i type="logical" name="LDOWNSAMPLE"> F  </i>
   <i type="logical" name="LCHARG"> F  </i>
   <i type="logical" name="LPARD"> F  </i>
   <i type="logical" name="LVTOT"> F  </i>
   <i type="logical" name="LVHAR"> F  </i>
   <i type="logical" name="LELF"> F  </i>
   <i type="logical" name="LOPTICS"> F  </i>
   <v name="STM">      0.00000000      0.00000000      0.00000000      0.00000000      0.00000000      0.00000000      0.00000000</v>
  </separator>
  <separator name="performance" >
   <i type="int" name="NPAR">    48</i>
   <i type="int" name="NSIM">     4</i>
   <i type="int" name="NBLK">    -1</i>
   <i type="logical" name="LPLANE"> T  </i>
   <i type="logical" name="LSCALAPACK"> T  </i>
   <i type="logical" name="LSCAAWARE"> T  </i>
   <i type="logical" name="LSCALU"> F  </i>
   <i type="logical" name="LASYNC"> F  </i>
   <i type="logical" name="LORBITALREAL"> F  </i>
  </separator>
  <separator name="miscellaneous" >
   <i type="int" name="IDIOT">     3</i>
   <i type="int" name="PHON_NSTRUCT">    -1</i>
   <i type="logical" name="LMUSIC"> F  </i>
   <v name="POMASS">    140.11500000    192.22000000     16.00000000      1.00000000</v>
   <v name="DARWINR">      0.00000000      0.00000000      0.00000000      0.00000000</v>
   <v name="DARWINV">      1.00000000      1.00000000      1.00000000      1.00000000</v>
   <i type="logical" name="LCORR"> T  </i>
  </separator>
  <i type="logical" name="GGA_COMPAT"> T  </i>
  <i type="logical" name="LBERRY"> F  </i>
  <i type="int" name="ICORELEVEL">     0</i>
  <i type="logical" name="LDAU"> T  </i>
  <v type="int" name="LDAUTYPE">     2</v>
  <v type="int" name="LDAUL">     3</v>
  <v name="LDAUU">      5.00000000</v>
  <v name="LDAUJ">      0.00000000</v>
  <i type="int" name="LDAUPRINT">     0</i>
  <i type="int" name="I_CONSTRAINED_M">     0</i>
  <separator name="electronic exchange-correlation" >
   <i type="string" name="GGA    ">PE</i>
   <i type="string" name="XC_C">1</i>
   <i type="int" name="VOSKOWN">     0</i>
   <i type="logical" name="LHFCALC"> F  </i>
   <i type="string" name="PRECFOCK"></i>
   <i type="logical" name="LSYMGRAD"> F  </i>
   <i type="logical" name="LHFONE"> F  </i>
   <i type="logical" name="LRHFCALC"> F  </i>
   <i type="logical" name="LTHOMAS"> F  </i>
   <i type="logical" name="LMODELHF"> F  </i>
   <i type="logical" name="LFOCKACE"> F  </i>
   <i name="ENCUT4O">     -1.00000000</i>
   <i type="int" name="EXXOEP">     0</i>
   <i type="int" name="FOURORBIT">     0</i>
   <i name="AEXX">      0.00000000</i>
   <i name="HFALPHA">      0.00000000</i>
   <i name="MCALPHA">      0.00000000</i>
   <i name="ALDAX">      1.00000000</i>
   <i name="AGGAX">      1.00000000</i>
   <i name="AMGGAX">      1.00000000</i>
   <i name="ALDAC">      1.00000000</i>
   <i name="AGGAC">      1.00000000</i>
   <i name="AMGGAC">      1.00000000</i>
   <i type="int" name="NKREDX">     1</i>
   <i type="int" name="NKREDY">     1</i>
   <i type="int" name="NKREDZ">     1</i>
   <i type="logical" name="SHIFTRED"> F  </i>
   <i type="logical" name="ODDONLY"> F  </i>
   <i type="logical" name="EVENONLY"> F  </i>
   <i type="int" name="LMAXFOCK">     0</i>
   <i type="int" name="NMAXFOCKAE">     0</i>
   <i type="logical" name="LFOCKAEDFT"> F  </i>
   <i name="HFSCREEN">      0.00000000</i>
   <i name="HFSCREENC">      0.00000000</i>
   <i type="int" name="NBANDSGWLOW">     0</i>
  </separator>
  <separator name="vdW DFT" >
   <i type="logical" name="LUSE_VDW"> F  </i>
   <i type="int" name="IVDW_NL">    -1</i>
   <i type="logical" name="LSPIN_VDW"> F  </i>
   <i name="ZAB_VDW">     -0.84910000</i>
   <i name="GAMMA_VDW">      1.39626340</i>
   <i name="ALPHA_VDW">      0.00000000</i>
   <i name="PARAM1">      0.12340000</i>
   <i name="PARAM2">      1.00000000</i>
   <i name="BPARAM">      6.30000000</i>
   <i name="CPARAM">      0.00930000</i>
  </separator>
  <separator name="model GW" >
   <i type="int" name="MODEL_GW">     0</i>
   <i name="MODEL_EPS0">     13.48204109</i>
   <i name="MODEL_ALPHA">      1.00000000</i>
  </separator>
  <separator name="linear response parameters" >
   <i type="logical" name="LEPSILON"> F  </i>
   <i type="logical" name="LRPA"> F  </i>
   <i type="logical" name="LNABLA"> F  </i>
   <i type="logical" name="LVEL"> F  </i>
   <i name="CSHIFT">      0.10000000</i>
   <i name="OMEGAMAX">     -1.00000000</i>
   <i name="DEG_THRESHOLD">      0.00200000</i>
   <i name="RTIME">     -0.10000000</i>
   <i name="WPLASMAI">      0.00000000</i>
   <v name="DFIELD">      0.00000000      0.00000000      0.00000000</v>
   <v name="WPLASMA">      0.00000000      0.00000000      0.00000000      0.00000000      0.00000000      0.00000000      0.00000000      0.00000000      0.00000000</v>
  </separator>
  <separator name="orbital magnetization" >
   <i type="logical" name="NUCIND"> F  </i>
   <v name="MAGPOS">      0.00000000      0.00000000      0.00000000</v>
   <i type="logical" name="LNICSALL"> T  </i>
   <i type="logical" name="ORBITALMAG"> F  </i>
   <i type="logical" name="LMAGBLOCH"> F  </i>
   <i type="logical" name="LCHIMAG"> F  </i>
   <i type="logical" name="LGAUGE"> T  </i>
   <i type="int" name="MAGATOM">     0</i>
   <v name="MAGDIPOL">      0.00000000      0.00000000      0.00000000</v>
   <v name="AVECCONST">      0.00000000      0.00000000      0.00000000</v>
  </separator>
  <separator name="response functions" >
   <i type="logical" name="LALL_IN_ONE"> F  </i>
   <i type="int" name="IALL_IN_ONE">    -1</i>
   <i type="int" name="NBANDS_WAVE">    -1</i>
   <i type="logical" name="LFINITE_TEMPERATURE"> F  </i>
   <i type="logical" name="LADDER"> F  </i>
   <i type="logical" name="LRPAFORCE"> F  </i>
   <i type="logical" name="LFXC"> F  </i>
   <i type="logical" name="LHARTREE"> T  </i>
   <i type="int" name="IBSE">     0</i>
   <v type="int" name="KPOINT">    -1     0     0     0</v>
   <i type="logical" name="LTCTC"> F  </i>
   <i type="logical" name="LTCTE"> F  </i>
   <i type="logical" name="LTETE"> F  </i>
   <i type="logical" name="LTRIPLET"> F  </i>
   <i type="logical" name="LFXCEPS"> F  </i>
   <i type="logical" name="LFXHEG"> F  </i>
   <i type="int" name="NATURALO">     2</i>
   <i type="logical" name="LHOLEGF"> F  </i>
   <i type="logical" name="L2ORDER"> F  </i>
   <i type="logical" name="LDMP1"> F  </i>
   <i type="logical" name="LMP2LT"> F  </i>
   <i type="logical" name="LSMP2LT"> F  </i>
   <i type="logical" name="LGWLF"> F  </i>
   <i name="ENCUTGW">     -1.60000002</i>
   <i name="ENCUTGWSOFT">     -1.60000002</i>
   <i name="ENCUTLF">     -1.00000000</i>
   <i type="logical" name="ESF_SPLINES"> F  </i>
   <i name="ESF_CONV">      0.01000000</i>
   <i type="int" name="ESF_NINTER">    15</i>
   <i type="int" name="LMAXMP2">    -1</i>
   <i name="SCISSOR">      0.00000000</i>
   <i type="int" name="NOMEGA">     0</i>
   <i type="int" name="NOMEGAR">     0</i>
   <i type="int" name="NBANDSGW">    -1</i>
   <i type="int" name="NBANDSO">    -1</i>
   <i type="int" name="NBANDSV">    -1</i>
   <i type="int" name="NELMGW">     1</i>
   <i type="int" name="NELMHF">     1</i>
   <i type="int" name="DIM">     3</i>
   <i type="int" name="IESPILON">     4</i>
   <i type="int" name="ANTIRES">     0</i>
   <i name="OMEGAMAX">    -30.00000000</i>
   <i name="OMEGAMIN">    -30.00000000</i>
   <i name="OMEGATL">   -200.00000000</i>
   <i type="int" name="OMEGAGRID">     0</i>
   <i name="CSHIFT">     -0.10000000</i>
   <i type="logical" name="LSELFENERGY"> F  </i>
   <i type="logical" name="LSPECTRAL"> F  </i>
   <i type="logical" name="LSPECTRALGW"> F  </i>
   <i type="logical" name="LSINGLES"> F  </i>
   <i type="logical" name="LFERMIGW"> F  </i>
   <i type="logical" name="ODDONLYGW"> F  </i>
   <i type="logical" name="EVENONLYGW"> F  </i>
   <i type="int" name="NKREDLFX">     1</i>
   <i type="int" name="NKREDLFY">     1</i>
   <i type="int" name="NKREDLFZ">     1</i>
   <i type="int" name="MAXMEM">  2800</i>
   <i type="int" name="TELESCOPE">     0</i>
   <i type="int" name="NTAUPAR">    -1</i>
   <i type="int" name="NOMEGAPAR">    -1</i>
   <i name="DAMP_NEWTON">      0.80000001</i>
   <i name="LAMBDA">      1.00000000</i>
  </separator>
  <separator name="External order field" >
   <i name="OFIELD_KAPPA">      0.00000000</i>
   <v name="OFIELD_K">      0.00000000      0.00000000      0.00000000</v>
   <i name="OFIELD_Q6_NEAR">      0.00000000</i>
   <i name="OFIELD_Q6_FAR">      0.00000000</i>
   <i name="OFIELD_A">      0.00000000</i>
  </separator>
  <separator name="optional k-points parameters" >
   <i type="int" name="KPOINTS_OPT_MODE">     1</i>
   <i type="logical" name="LKPOINTS_OPT"> F  </i>
  </separator>
 </parameters>
 <atominfo>
  <atoms>     194 </atoms>
  <types>       4 </types>
  <array name="atoms" >
   <dimension dim="1">ion</dimension>
   <field type="string">element</field>
   <field type="int">atomtype</field>
   <set>
    <rc><c>Ce</c><c>   1</c></rc>
    <rc><c>Ce</c><c>   1</c></rc>
    <rc><c>Ce</c><c>   1</c></rc>
    <rc><c>Ce</c><c>   1</c></rc>
    <rc><c>Ce</c><c>   1</c></rc>
    <rc><c>Ce</c><c>   1</c></rc>
    <rc><c>Ce</c><c>   1</c></rc>
    <rc><c>Ce</c><c>   1</c></rc>
    <rc><c>Ce</c><c>   1</c></rc>
    <rc><c>Ce</c><c>   1</c></rc>
    <rc><c>Ce</c><c>   1</c></rc>
    <rc><c>Ce</c><c>   1</c></rc>
    <rc><c>Ce</c><c>   1</c></rc>
    <rc><c>Ce</c><c>   1</c></rc>
    <rc><c>Ce</c><c>   1</c></rc>
    <rc><c>Ce</c><c>   1</c></rc>
    <rc><c>Ce</c><c>   1</c></rc>
    <rc><c>Ce</c><c>   1</c></rc>
    <rc><c>Ce</c><c>   1</c></rc>
    <rc><c>Ce</c><c>   1</c></rc>
    <rc><c>Ce</c><c>   1</c></rc>
    <rc><c>Ce</c><c>   1</c></rc>
    <rc><c>Ce</c><c>   1</c></rc>
    <rc><c>Ce</c><c>   1</c></rc>
    <rc><c>Ce</c><c>   1</c></rc>
    <rc><c>Ce</c><c>   1</c></rc>
    <rc><c>Ce</c><c>   1</c></rc>
    <rc><c>Ce</c><c>   1</c></rc>
    <rc><c>Ce</c><c>   1</c></rc>
    <rc><c>Ce</c><c>   1</c></rc>
    <rc><c>Ce</c><c>   1</c></rc>
    <rc><c>Ce</c><c>   1</c></rc>
    <rc><c>Ir</c><c>   2</c></rc>
    <rc><c>Ir</c><c>   2</c></rc>
    <rc><c>Ir</c><c>   2</c></rc>
    <rc><c>Ir</c><c>   2</c></rc>
    <rc><c>O </c><c>   3</c></rc>
    <rc><c>O </c><c>   3</c></rc>
    <rc><c>O </c><c>   3</c></rc>
    <rc><c>O </c><c>   3</c></rc>
    <rc><c>O </c><c>   3</c></rc>
    <rc><c>O </c><c>   3</c></rc>
    <rc><c>O </c><c>   3</c></rc>
    <rc><c>O </c><c>   3</c></rc>
    <rc><c>O </c><c>   3</c></rc>
    <rc><c>O </c><c>   3</c></rc>
    <rc><c>O </c><c>   3</c></rc>
    <rc><c>O </c><c>   3</c></rc>
    <rc><c>O </c><c>   3</c></rc>
    <rc><c>O </c><c>   3</c></rc>
    <rc><c>O </c><c>   3</c></rc>
    <rc><c>O </c><c>   3</c></rc>
    <rc><c>O </c><c>   3</c></rc>
    <rc><c>O </c><c>   3</c></rc>
    <rc><c>O </c><c>   3</c></rc>
    <rc><c>O </c><c>   3</c></rc>
    <rc><c>O </c><c>   3</c></rc>
    <rc><c>O </c><c>   3</c></rc>
    <rc><c>O </c><c>   3</c></rc>
    <rc><c>O </c><c>   3</c></rc>
    <rc><c>O </c><c>   3</c></rc>
    <rc><c>O </c><c>   3</c></rc>
    <rc><c>O </c><c>   3</c></rc>
    <rc><c>O </c><c>   3</c></rc>
    <rc><c>O </c><c>   3</c></rc>
    <rc><c>O </c><c>   3</c></rc>
    <rc><c>O </c><c>   3</c></rc>
    <rc><c>O </c><c>   3</c></rc>
    <rc><c>O </c><c>   3</c></rc>
    <rc><c>O </c><c>   3</c></rc>
    <rc><c>O </c><c>   3</c></rc>
    <rc><c>O </c><c>   3</c></rc>
    <rc><c>O </c><c>   3</c></rc>
    <rc><c>O </c><c>   3</c></rc>
    <rc><c>O </c><c>   3</c></rc>
    <rc><c>O </c><c>   3</c></rc>
    <rc><c>O </c><c>   3</c></rc>
    <rc><c>O </c><c>   3</c></rc>
    <rc><c>O </c><c>   3</c></rc>
    <rc><c>O </c><c>   3</c></rc>
    <rc><c>O </c><c>   3</c></rc>
    <rc><c>O </c><c>   3</c></rc>
    <rc><c>O </c><c>   3</c></rc>
    <rc><c>O </c><c>   3</c></rc>
    <rc><c>O </c><c>   3</c></rc>
    <rc><c>O </c><c>   3</c></rc>
    <rc><c>O </c><c>   3</c></rc>
    <rc><c>O </c><c>   3</c></rc>
    <rc><c>O </c><c>   3</c></rc>
    <rc><c>O </c><c>   3</c></rc>
    <rc><c>O </c><c>   3</c></rc>
    <rc><c>O </c><c>   3</c></rc>
    <rc><c>O </c><c>   3</c></rc>
    <rc><c>O </c><c>   3</c></rc>
    <rc><c>O </c><c>   3</c></rc>
    <rc><c>O </c><c>   3</c></rc>
    <rc><c>O </c><c>   3</c></rc>
    <rc><c>O </c><c>   3</c></rc>
    <rc><c>O </c><c>   3</c></rc>
    <rc><c>O </c><c>   3</c></rc>
    <rc><c>O </c><c>   3</c></rc>
    <rc><c>O </c><c>   3</c></rc>
    <rc><c>O </c><c>   3</c></rc>
    <rc><c>O </c><c>   3</c></rc>
    <rc><c>O </c><c>   3</c></rc>
    <rc><c>O </c><c>   3</c></rc>
    <rc><c>O </c><c>   3</c></rc>
    <rc><c>O </c><c>   3</c></rc>
    <rc><c>O </c><c>   3</c></rc>
    <rc><c>O </c><c>   3</c></rc>
    <rc><c>O </c><c>   3</c></rc>
    <rc><c>O </c><c>   3</c></rc>
    <rc><c>O </c><c>   3</c></rc>
    <rc><c>O </c><c>   3</c></rc>
    <rc><c>O </c><c>   3</c></rc>
    <rc><c>O </c><c>   3</c></rc>
    <rc><c>O </c><c>   3</c></rc>
    <rc><c>O </c><c>   3</c></rc>
    <rc><c>O </c><c>   3</c></rc>
    <rc><c>O </c><c>   3</c></rc>
    <rc><c>O </c><c>   3</c></rc>
    <rc><c>O </c><c>   3</c></rc>
    <rc><c>O </c><c>   3</c></rc>
    <rc><c>O </c><c>   3</c></rc>
    <rc><c>O </c><c>   3</c></rc>
    <rc><c>O </c><c>   3</c></rc>
    <rc><c>O </c><c>   3</c></rc>
    <rc><c>O </c><c>   3</c></rc>
    <rc><c>O </c><c>   3</c></rc>
    <rc><c>O </c><c>   3</c></rc>
    <rc><c>O </c><c>   3</c></rc>
    <rc><c>O </c><c>   3</c></rc>
    <rc><c>O </c><c>   3</c></rc>
    <rc><c>O </c><c>   3</c></rc>
    <rc><c>O </c><c>   3</c></rc>
    <rc><c>O </c><c>   3</c></rc>
    <rc><c>O </c><c>   3</c></rc>
    <rc><c>O </c><c>   3</c></rc>
    <rc><c>O </c><c>   3</c></rc>
    <rc><c>O </c><c>   3</c></rc>
    <rc><c>O </c><c>   3</c></rc>
    <rc><c>O </c><c>   3</c></rc>
    <rc><c>O </c><c>   3</c></rc>
    <rc><c>O </c><c>   3</c></rc>
    <rc><c>O </c><c>   3</c></rc>
    <rc><c>O </c><c>   3</c></rc>
    <rc><c>O </c><c>   3</c></rc>
    <rc><c>O </c><c>   3</c></rc>
    <rc><c>O </c><c>   3</c></rc>
    <rc><c>O </c><c>   3</c></rc>
    <rc><c>O </c><c>   3</c></rc>
    <rc><c>O </c><c>   3</c></rc>
    <rc><c>O </c><c>   3</c></rc>
    <rc><c>O </c><c>   3</c></rc>
    <rc><c>H </c><c>   4</c></rc>
    <rc><c>H </c><c>   4</c></rc>
    <rc><c>H </c><c>   4</c></rc>
    <rc><c>H </c><c>   4</c></rc>
    <rc><c>H </c><c>   4</c></rc>
    <rc><c>H </c><c>   4</c></rc>
    <rc><c>H </c><c>   4</c></rc>
    <rc><c>H </c><c>   4</c></rc>
    <rc><c>H </c><c>   4</c></rc>
    <rc><c>H </c><c>   4</c></rc>
    <rc><c>H </c><c>   4</c></rc>
    <rc><c>H </c><c>   4</c></rc>
    <rc><c>H </c><c>   4</c></rc>
    <rc><c>H </c><c>   4</c></rc>
    <rc><c>H </c><c>   4</c></rc>
    <rc><c>H </c><c>   4</c></rc>
    <rc><c>H </c><c>   4</c></rc>
    <rc><c>H </c><c>   4</c></rc>
    <rc><c>H </c><c>   4</c></rc>
    <rc><c>H </c><c>   4</c></rc>
    <rc><c>H </c><c>   4</c></rc>
    <rc><c>H </c><c>   4</c></rc>
    <rc><c>H </c><c>   4</c></rc>
    <rc><c>H </c><c>   4</c></rc>
    <rc><c>H </c><c>   4</c></rc>
    <rc><c>H </c><c>   4</c></rc>
    <rc><c>H </c><c>   4</c></rc>
    <rc><c>H </c><c>   4</c></rc>
    <rc><c>H </c><c>   4</c></rc>
    <rc><c>H </c><c>   4</c></rc>
    <rc><c>H </c><c>   4</c></rc>
    <rc><c>H </c><c>   4</c></rc>
    <rc><c>H </c><c>   4</c></rc>
    <rc><c>H </c><c>   4</c></rc>
    <rc><c>H </c><c>   4</c></rc>
    <rc><c>H </c><c>   4</c></rc>
    <rc><c>H </c><c>   4</c></rc>
    <rc><c>H </c><c>   4</c></rc>
    <rc><c>H </c><c>   4</c></rc>
    <rc><c>H </c><c>   4</c></rc>
   </set>
  </array>
  <array name="atomtypes" >
   <dimension dim="1">type</dimension>
   <field type="int">atomspertype</field>
   <field type="string">element</field>
   <field>mass</field>
   <field>valence</field>
   <field type="string">pseudopotential</field>
   <set>
    <rc><c>  32</c><c>Ce</c><c>    140.11500000</c><c>     12.00000000</c><c>  PAW_PBE Ce 23Dec2003                  </c></rc>
    <rc><c>   4</c><c>Ir</c><c>    192.22000000</c><c>      9.00000000</c><c>  PAW_PBE Ir 06Sep2000                  </c></rc>
    <rc><c> 118</c><c>O </c><c>     16.00000000</c><c>      6.00000000</c><c>  PAW_PBE O 08Apr2002                   </c></rc>
    <rc><c>  40</c><c>H </c><c>      1.00000000</c><c>      1.00000000</c><c>  PAW_PBE H 15Jun2001                   </c></rc>
   </set>
  </array>
 </atominfo>
 <structure name="initialpos" >
  <crystal>
   <varray name="basis" >
    <v>      15.46430000       0.00000000       0.00000000 </v>
    <v>      -7.73215000      13.39247665       0.00000000 </v>
    <v>       0.00000000       0.00000000      21.04820000 </v>
   </varray>
   <i name="volume">   4359.19328417 </i>
   <varray name="rec_basis" >
    <v>       0.06466507       0.03733439       0.00000000 </v>
    <v>       0.00000000       0.07466879       0.00000000 </v>
    <v>       0.00000000       0.00000000       0.04751000 </v>
   </varray>
  </crystal>
  <varray name="positions" >
   <v>       0.00091000       0.99975000       0.35854000 </v>
   <v>       0.16667000       0.08333000       0.20781000 </v>
   <v>       0.24517000       0.99517000       0.35738000 </v>
   <v>       0.41667000       0.08333000       0.20781000 </v>
   <v>       0.49705000       0.00169000       0.36006000 </v>
   <v>       0.66667000       0.08333000       0.20781000 </v>
   <v>       0.75659000       0.00320000       0.35806000 </v>
   <v>       0.91667000       0.08333000       0.20781000 </v>
   <v>       0.99923000       0.24978000       0.35837000 </v>
   <v>       0.16667000       0.33333000       0.20781000 </v>
   <v>       0.24733000       0.25134000       0.36064000 </v>
   <v>       0.41667000       0.33333000       0.20781000 </v>
   <v>       0.50295000       0.24840000       0.36204000 </v>
   <v>       0.66667000       0.33333000       0.20781000 </v>
   <v>       0.75101000       0.24968000       0.35809000 </v>
   <v>       0.91667000       0.33333000       0.20781000 </v>
   <v>       0.00103000       0.49979000       0.35853000 </v>
   <v>       0.16667000       0.58333000       0.20781000 </v>
   <v>       0.24493000       0.49460000       0.35728000 </v>
   <v>       0.41667000       0.58333000       0.20781000 </v>
   <v>       0.49687000       0.50186000       0.35988000 </v>
   <v>       0.66667000       0.58333000       0.20781000 </v>
   <v>       0.75701000       0.50333000       0.35797000 </v>
   <v>       0.91667000       0.58333000       0.20781000 </v>
   <v>       0.99919000       0.74994000       0.35832000 </v>
   <v>       0.16667000       0.83333000       0.20781000 </v>
   <v>       0.24701000       0.75158000       0.36037000 </v>
   <v>       0.41667000       0.83333000       0.20781000 </v>
   <v>       0.50311000       0.74875000       0.36208000 </v>
   <v>       0.66667000       0.83333000       0.20781000 </v>
   <v>       0.75090000       0.74973000       0.35813000 </v>
   <v>       0.91667000       0.83333000       0.20781000 </v>
   <v>       0.57959000       0.91854000       0.50140000 </v>
   <v>       0.32998000       0.67086000       0.50177000 </v>
   <v>       0.57831000       0.42146000       0.50220000 </v>
   <v>       0.33332000       0.16933000       0.50096000 </v>
   <v>       0.08333000       0.16667000       0.17032000 </v>
   <v>       0.16689000       0.08376000       0.32028000 </v>
   <v>       0.08317000       0.16681000       0.39582000 </v>
   <v>       0.00000000       0.00000000       0.24530000 </v>
   <v>       0.16667000       0.08333000       0.09533000 </v>
   <v>       0.20923000       0.06896000       0.50369000 </v>
   <v>       0.33333000       0.16667000       0.17032000 </v>
   <v>       0.41701000       0.08682000       0.32116000 </v>
   <v>       0.32499000       0.15778000       0.39892000 </v>
   <v>       0.25000000       0.00000000       0.24530000 </v>
   <v>       0.41667000       0.08333000       0.09533000 </v>
   <v>       0.58333000       0.16667000       0.17032000 </v>
   <v>       0.66725000       0.08225000       0.32016000 </v>
   <v>       0.58591000       0.16578000       0.39351000 </v>
   <v>       0.50000000       0.00000000       0.24530000 </v>
   <v>       0.66667000       0.08333000       0.09533000 </v>
   <v>       0.67875000       0.04287000       0.50554000 </v>
   <v>       0.83333000       0.16667000       0.17032000 </v>
   <v>       0.91831000       0.08407000       0.31961000 </v>
   <v>       0.83578000       0.16791000       0.39472000 </v>
   <v>       0.75000000       0.00000000       0.24530000 </v>
   <v>       0.91667000       0.08333000       0.09533000 </v>
   <v>       0.08333000       0.41667000       0.17032000 </v>
   <v>       0.16285000       0.33056000       0.31920000 </v>
   <v>       0.08110000       0.41433000       0.39479000 </v>
   <v>       0.00000000       0.25000000       0.24530000 </v>
   <v>       0.16667000       0.33333000       0.09533000 </v>
   <v>       0.33333000       0.41667000       0.17032000 </v>
   <v>       0.42027000       0.33246000       0.32494000 </v>
   <v>       0.32743000       0.41704000       0.38879000 </v>
   <v>       0.25000000       0.25000000       0.24530000 </v>
   <v>       0.41667000       0.33333000       0.09533000 </v>
   <v>       0.47610000       0.27461000       0.47158000 </v>
   <v>       0.58333000       0.41667000       0.17032000 </v>
   <v>       0.66649000       0.33525000       0.32182000 </v>
   <v>       0.59483000       0.42741000       0.40172000 </v>
   <v>       0.50000000       0.25000000       0.24530000 </v>
   <v>       0.66667000       0.33333000       0.09533000 </v>
   <v>       0.83333000       0.41667000       0.17032000 </v>
   <v>       0.91616000       0.33290000       0.31951000 </v>
   <v>       0.83760000       0.41856000       0.39430000 </v>
   <v>       0.75000000       0.25000000       0.24530000 </v>
   <v>       0.91667000       0.33333000       0.09533000 </v>
   <v>       0.08333000       0.66667000       0.17032000 </v>
   <v>       0.16717000       0.58384000       0.32030000 </v>
   <v>       0.08288000       0.66675000       0.39579000 </v>
   <v>       0.00000000       0.50000000       0.24530000 </v>
   <v>       0.16667000       0.58333000       0.09533000 </v>
   <v>       0.20575000       0.57219000       0.50785000 </v>
   <v>       0.33333000       0.66667000       0.17032000 </v>
   <v>       0.41635000       0.58690000       0.32140000 </v>
   <v>       0.32333000       0.65643000       0.40090000 </v>
   <v>       0.25000000       0.50000000       0.24530000 </v>
   <v>       0.41667000       0.58333000       0.09533000 </v>
   <v>       0.58333000       0.66667000       0.17032000 </v>
   <v>       0.66699000       0.58173000       0.32029000 </v>
   <v>       0.58541000       0.66550000       0.39346000 </v>
   <v>       0.50000000       0.50000000       0.24530000 </v>
   <v>       0.66667000       0.58333000       0.09533000 </v>
   <v>       0.67520000       0.54612000       0.50952000 </v>
   <v>       0.83333000       0.66667000       0.17032000 </v>
   <v>       0.91835000       0.58411000       0.31962000 </v>
   <v>       0.83545000       0.66771000       0.39488000 </v>
   <v>       0.75000000       0.50000000       0.24530000 </v>
   <v>       0.91667000       0.58333000       0.09533000 </v>
   <v>       0.08333000       0.91667000       0.17032000 </v>
   <v>       0.16288000       0.83070000       0.31919000 </v>
   <v>       0.08084000       0.91411000       0.39451000 </v>
   <v>       0.00000000       0.75000000       0.24530000 </v>
   <v>       0.16667000       0.83333000       0.09533000 </v>
   <v>       0.33333000       0.91667000       0.17032000 </v>
   <v>       0.41918000       0.83126000       0.32496000 </v>
   <v>       0.32792000       0.91746000       0.38854000 </v>
   <v>       0.25000000       0.75000000       0.24530000 </v>
   <v>       0.41667000       0.83333000       0.09533000 </v>
   <v>       0.47573000       0.77475000       0.47149000 </v>
   <v>       0.58333000       0.91667000       0.17032000 </v>
   <v>       0.66673000       0.83482000       0.32171000 </v>
   <v>       0.59388000       0.92605000       0.39983000 </v>
   <v>       0.50000000       0.75000000       0.24530000 </v>
   <v>       0.66667000       0.83333000       0.09533000 </v>
   <v>       0.83333000       0.91667000       0.17032000 </v>
   <v>       0.91590000       0.83265000       0.31948000 </v>
   <v>       0.83757000       0.91845000       0.39429000 </v>
   <v>       0.75000000       0.75000000       0.24530000 </v>
   <v>       0.91667000       0.83333000       0.09533000 </v>
   <v>       0.48571000       0.45179000       0.47583000 </v>
   <v>       0.29760000       0.76277000       0.47702000 </v>
   <v>       0.48738000       0.95074000       0.47709000 </v>
   <v>       0.53345000       0.38379000       0.57900000 </v>
   <v>       0.36614000       0.71298000       0.57922000 </v>
   <v>       0.54056000       0.88522000       0.57961000 </v>
   <v>       0.65773000       0.37041000       0.49314000 </v>
   <v>       0.38270000       0.59325000       0.49106000 </v>
   <v>       0.65717000       0.86563000       0.49029000 </v>
   <v>       0.29950000       0.26118000       0.47866000 </v>
   <v>       0.36536000       0.20475000       0.57981000 </v>
   <v>       0.38730000       0.09321000       0.48767000 </v>
   <v>       0.61857000       0.39899000       0.74396000 </v>
   <v>       0.76885000       0.31913000       0.67741000 </v>
   <v>       0.91724000       0.54832000       0.74396000 </v>
   <v>       0.06658000       0.62299000       0.74396000 </v>
   <v>       0.31808000       0.64770000       0.74991000 </v>
   <v>       0.41816000       0.55574000       0.69015000 </v>
   <v>       0.79924000       0.81594000       0.73728000 </v>
   <v>       0.45788000       0.47226000       0.61851000 </v>
   <v>       0.40447000       0.26561000       0.65931000 </v>
   <v>       0.19622000       0.42436000       0.65152000 </v>
   <v>       0.71684000       0.70508000       0.69015000 </v>
   <v>       0.57918000       0.08502000       0.52292000 </v>
   <v>       0.30050000       0.71362000       0.65931000 </v>
   <v>       0.88746000       0.24043000       0.54659000 </v>
   <v>       0.11194000       0.14567000       0.74396000 </v>
   <v>       0.26153000       0.11894000       0.65561000 </v>
   <v>       0.41062000       0.29501000       0.74396000 </v>
   <v>       0.24158000       0.94704000       0.65152000 </v>
   <v>       0.08833000       0.69734000       0.61660000 </v>
   <v>       0.58048000       0.84072000       0.80643000 </v>
   <v>       0.59569000       0.42955000       0.77493000 </v>
   <v>       0.69108000       0.43807000       0.74665000 </v>
   <v>       0.74597000       0.34970000       0.70838000 </v>
   <v>       0.84136000       0.35822000       0.68010000 </v>
   <v>       0.89437000       0.57889000       0.77493000 </v>
   <v>       0.98976000       0.58741000       0.74665000 </v>
   <v>       0.04371000       0.65356000       0.77493000 </v>
   <v>       0.13910000       0.66208000       0.74665000 </v>
   <v>       0.29521000       0.67827000       0.78088000 </v>
   <v>       0.39060000       0.68678000       0.75260000 </v>
   <v>       0.39528000       0.58631000       0.72112000 </v>
   <v>       0.49067000       0.59483000       0.69284000 </v>
   <v>       0.77636000       0.84651000       0.76825000 </v>
   <v>       0.87175000       0.85502000       0.73997000 </v>
   <v>       0.43500000       0.50282000       0.64948000 </v>
   <v>       0.53039000       0.51134000       0.62119000 </v>
   <v>       0.38160000       0.29618000       0.69028000 </v>
   <v>       0.47698000       0.30470000       0.66200000 </v>
   <v>       0.17334000       0.45493000       0.68249000 </v>
   <v>       0.26873000       0.46345000       0.65421000 </v>
   <v>       0.69396000       0.73565000       0.72112000 </v>
   <v>       0.78935000       0.74416000       0.69284000 </v>
   <v>       0.55631000       0.11559000       0.55389000 </v>
   <v>       0.65170000       0.12411000       0.52561000 </v>
   <v>       0.27762000       0.74419000       0.69028000 </v>
   <v>       0.37301000       0.75271000       0.66200000 </v>
   <v>       0.86459000       0.27100000       0.57755000 </v>
   <v>       0.95998000       0.27952000       0.54927000 </v>
   <v>       0.08907000       0.17624000       0.77493000 </v>
   <v>       0.18446000       0.18476000       0.74665000 </v>
   <v>       0.23865000       0.14951000       0.68658000 </v>
   <v>       0.33404000       0.15803000       0.65830000 </v>
   <v>       0.38774000       0.32558000       0.77493000 </v>
   <v>       0.48313000       0.33409000       0.74665000 </v>
   <v>       0.21870000       0.97761000       0.68249000 </v>
   <v>       0.31409000       0.98613000       0.65421000 </v>
   <v>       0.06546000       0.72791000       0.64757000 </v>
   <v>       0.16085000       0.73642000       0.61928000 </v>
   <v>       0.55760000       0.87129000       0.83740000 </v>
   <v>       0.65299000       0.87981000       0.80912000 </v>
  </varray>
  <varray name="selective"  type="logical" >
   <v type="logical" >  T  T  T </v>
   <v type="logical" >  F  F  F </v>
   <v type="logical" >  T  T  T </v>
   <v type="logical" >  F  F  F </v>
   <v type="logical" >  T  T  T </v>
   <v type="logical" >  F  F  F </v>
   <v type="logical" >  T  T  T </v>
   <v type="logical" >  F  F  F </v>
   <v type="logical" >  T  T  T </v>
   <v type="logical" >  F  F  F </v>
   <v type="logical" >  T  T  T </v>
   <v type="logical" >  F  F  F </v>
   <v type="logical" >  T  T  T </v>
   <v type="logical" >  F  F  F </v>
   <v type="logical" >  T  T  T </v>
   <v type="logical" >  F  F  F </v>
   <v type="logical" >  T  T  T </v>
   <v type="logical" >  F  F  F </v>
   <v type="logical" >  T  T  T </v>
   <v type="logical" >  F  F  F </v>
   <v type="logical" >  T  T  T </v>
   <v type="logical" >  F  F  F </v>
   <v type="logical" >  T  T  T </v>
   <v type="logical" >  F  F  F </v>
   <v type="logical" >  T  T  T </v>
   <v type="logical" >  F  F  F </v>
   <v type="logical" >  T  T  T </v>
   <v type="logical" >  F  F  F </v>
   <v type="logical" >  T  T  T </v>
   <v type="logical" >  F  F  F </v>
   <v type="logical" >  T  T  T </v>
   <v type="logical" >  F  F  F </v>
   <v type="logical" >  T  T  T </v>
   <v type="logical" >  T  T  T </v>
   <v type="logical" >  T  T  T </v>
   <v type="logical" >  T  T  T </v>
   <v type="logical" >  F  F  F </v>
   <v type="logical" >  T  T  T </v>
   <v type="logical" >  T  T  T </v>
   <v type="logical" >  F  F  F </v>
   <v type="logical" >  F  F  F </v>
   <v type="logical" >  T  T  T </v>
   <v type="logical" >  F  F  F </v>
   <v type="logical" >  T  T  T </v>
   <v type="logical" >  T  T  T </v>
   <v type="logical" >  F  F  F </v>
   <v type="logical" >  F  F  F </v>
   <v type="logical" >  F  F  F </v>
   <v type="logical" >  T  T  T </v>
   <v type="logical" >  T  T  T </v>
   <v type="logical" >  F  F  F </v>
   <v type="logical" >  F  F  F </v>
   <v type="logical" >  T  T  T </v>
   <v type="logical" >  F  F  F </v>
   <v type="logical" >  T  T  T </v>
   <v type="logical" >  T  T  T </v>
   <v type="logical" >  F  F  F </v>
   <v type="logical" >  F  F  F </v>
   <v type="logical" >  F  F  F </v>
   <v type="logical" >  T  T  T </v>
   <v type="logical" >  T  T  T </v>
   <v type="logical" >  F  F  F </v>
   <v type="logical" >  F  F  F </v>
   <v type="logical" >  F  F  F </v>
   <v type="logical" >  T  T  T </v>
   <v type="logical" >  T  T  T </v>
   <v type="logical" >  F  F  F </v>
   <v type="logical" >  F  F  F </v>
   <v type="logical" >  T  T  T </v>
   <v type="logical" >  F  F  F </v>
   <v type="logical" >  T  T  T </v>
   <v type="logical" >  T  T  T </v>
   <v type="logical" >  F  F  F </v>
   <v type="logical" >  F  F  F </v>
   <v type="logical" >  F  F  F </v>
   <v type="logical" >  T  T  T </v>
   <v type="logical" >  T  T  T </v>
   <v type="logical" >  F  F  F </v>
   <v type="logical" >  F  F  F </v>
   <v type="logical" >  F  F  F </v>
   <v type="logical" >  T  T  T </v>
   <v type="logical" >  T  T  T </v>
   <v type="logical" >  F  F  F </v>
   <v type="logical" >  F  F  F </v>
   <v type="logical" >  T  T  T </v>
   <v type="logical" >  F  F  F </v>
   <v type="logical" >  T  T  T </v>
   <v type="logical" >  T  T  T </v>
   <v type="logical" >  F  F  F </v>
   <v type="logical" >  F  F  F </v>
   <v type="logical" >  F  F  F </v>
   <v type="logical" >  T  T  T </v>
   <v type="logical" >  T  T  T </v>
   <v type="logical" >  F  F  F </v>
   <v type="logical" >  F  F  F </v>
   <v type="logical" >  T  T  T </v>
   <v type="logical" >  F  F  F </v>
   <v type="logical" >  T  T  T </v>
   <v type="logical" >  T  T  T </v>
   <v type="logical" >  F  F  F </v>
   <v type="logical" >  F  F  F </v>
   <v type="logical" >  F  F  F </v>
   <v type="logical" >  T  T  T </v>
   <v type="logical" >  T  T  T </v>
   <v type="logical" >  F  F  F </v>
   <v type="logical" >  F  F  F </v>
   <v type="logical" >  F  F  F </v>
   <v type="logical" >  T  T  T </v>
   <v type="logical" >  T  T  T </v>
   <v type="logical" >  F  F  F </v>
   <v type="logical" >  F  F  F </v>
   <v type="logical" >  T  T  T </v>
   <v type="logical" >  F  F  F </v>
   <v type="logical" >  T  T  T </v>
   <v type="logical" >  T  T  T </v>
   <v type="logical" >  F  F  F </v>
   <v type="logical" >  F  F  F </v>
   <v type="logical" >  F  F  F </v>
   <v type="logical" >  T  T  T </v>
   <v type="logical" >  T  T  T </v>
   <v type="logical" >  F  F  F </v>
   <v type="logical" >  F  F  F </v>
   <v type="logical" >  T  T  T </v>
   <v type="logical" >  T  T  T </v>
   <v type="logical" >  T  T  T </v>
   <v type="logical" >  T  T  T </v>
   <v type="logical" >  T  T  T </v>
   <v type="logical" >  T  T  T </v>
   <v type="logical" >  T  T  T </v>
   <v type="logical" >  T  T  T </v>
   <v type="logical" >  T  T  T </v>
   <v type="logical" >  T  T  T </v>
   <v type="logical" >  T  T  T </v>
   <v type="logical" >  T  T  T </v>
   <v type="logical" >  T  T  T </v>
   <v type="logical" >  T  T  T </v>
   <v type="logical" >  T  T  T </v>
   <v type="logical" >  T  T  T </v>
   <v type="logical" >  T  T  T </v>
   <v type="logical" >  T  T  T </v>
   <v type="logical" >  T  T  T </v>
   <v type="logical" >  T  T  T </v>
   <v type="logical" >  T  T  T </v>
   <v type="logical" >  T  T  T </v>
   <v type="logical" >  T  T  T </v>
   <v type="logical" >  T  T  T </v>
   <v type="logical" >  T  T  T </v>
   <v type="logical" >  T  T  T </v>
   <v type="logical" >  T  T  T </v>
   <v type="logical" >  T  T  T </v>
   <v type="logical" >  T  T  T </v>
   <v type="logical" >  T  T  T </v>
   <v type="logical" >  T  T  T </v>
   <v type="logical" >  T  T  T </v>
   <v type="logical" >  T  T  T </v>
   <v type="logical" >  T  T  T </v>
   <v type="logical" >  T  T  T </v>
   <v type="logical" >  T  T  T </v>
   <v type="logical" >  T  T  T </v>
   <v type="logical" >  T  T  T </v>
   <v type="logical" >  T  T  T </v>
   <v type="logical" >  T  T  T </v>
   <v type="logical" >  T  T  T </v>
   <v type="logical" >  T  T  T </v>
   <v type="logical" >  T  T  T </v>
   <v type="logical" >  T  T  T </v>
   <v type="logical" >  T  T  T </v>
   <v type="logical" >  T  T  T </v>
   <v type="logical" >  T  T  T </v>
   <v type="logical" >  T  T  T </v>
   <v type="logical" >  T  T  T </v>
   <v type="logical" >  T  T  T </v>
   <v type="logical" >  T  T  T </v>
   <v type="logical" >  T  T  T </v>
   <v type="logical" >  T  T  T </v>
   <v type="logical" >  T  T  T </v>
   <v type="logical" >  T  T  T </v>
   <v type="logical" >  T  T  T </v>
   <v type="logical" >  T  T  T </v>
   <v type="logical" >  T  T  T </v>
   <v type="logical" >  T  T  T </v>
   <v type="logical" >  T  T  T </v>
   <v type="logical" >  T  T  T </v>
   <v type="logical" >  T  T  T </v>
   <v type="logical" >  T  T  T </v>
   <v type="logical" >  T  T  T </v>
   <v type="logical" >  T  T  T </v>
   <v type="logical" >  T  T  T </v>
   <v type="logical" >  T  T  T </v>
   <v type="logical" >  T  T  T </v>
   <v type="logical" >  T  T  T </v>
   <v type="logical" >  T  T  T </v>
   <v type="logical" >  T  T  T </v>
   <v type="logical" >  T  T  T </v>
  </varray>
  <varray name="velocities" >
   <v>      -0.00182464       0.00247965       0.00067074 </v>
   <v>       0.00000000       0.00000000       0.00000000 </v>
   <v>      -0.00129463       0.00024781      -0.00020932 </v>
   <v>       0.00000000       0.00000000       0.00000000 </v>
   <v>       0.00300036       0.00025585      -0.00114541 </v>
   <v>       0.00000000       0.00000000       0.00000000 </v>
   <v>       0.00174205      -0.00252675      -0.00036520 </v>
   <v>       0.00000000       0.00000000       0.00000000 </v>
   <v>      -0.00318159      -0.00213558      -0.00269675 </v>
   <v>       0.00000000       0.00000000       0.00000000 </v>
   <v>       0.00147088      -0.00087124      -0.00092333 </v>
   <v>       0.00000000       0.00000000       0.00000000 </v>
   <v>       0.00205490      -0.00006799      -0.00013875 </v>
   <v>       0.00000000       0.00000000       0.00000000 </v>
   <v>       0.00322017      -0.00113058      -0.00016101 </v>
   <v>       0.00000000       0.00000000       0.00000000 </v>
   <v>       0.00058695       0.00033178       0.00029569 </v>
   <v>       0.00000000       0.00000000       0.00000000 </v>
   <v>      -0.00296956      -0.00381495      -0.00009520 </v>
   <v>       0.00000000       0.00000000       0.00000000 </v>
   <v>      -0.00084330      -0.00156750      -0.00069352 </v>
   <v>       0.00000000       0.00000000       0.00000000 </v>
   <v>      -0.00066403       0.00070361       0.00171246 </v>
   <v>       0.00000000       0.00000000       0.00000000 </v>
   <v>      -0.00280401      -0.00348205       0.00004688 </v>
   <v>       0.00000000       0.00000000       0.00000000 </v>
   <v>      -0.00106828      -0.00145063       0.00111449 </v>
   <v>       0.00000000       0.00000000       0.00000000 </v>
   <v>      -0.00050051      -0.00268019      -0.00071838 </v>
   <v>       0.00000000       0.00000000       0.00000000 </v>
   <v>       0.00023956       0.00040451       0.00054523 </v>
   <v>       0.00000000       0.00000000       0.00000000 </v>
   <v>      -0.00053058      -0.00204067       0.00046403 </v>
   <v>       0.00070230      -0.00152367      -0.00018959 </v>
   <v>       0.00001830       0.00148052       0.00051696 </v>
   <v>       0.00227005       0.00316412       0.00138559 </v>
   <v>       0.00000000       0.00000000       0.00000000 </v>
   <v>       0.00012150       0.00574246      -0.00465986 </v>
   <v>       0.00740718       0.01095081      -0.00034861 </v>
   <v>       0.00000000       0.00000000       0.00000000 </v>
   <v>       0.00000000       0.00000000       0.00000000 </v>
   <v>      -0.00440329      -0.00430004       0.00966714 </v>
   <v>       0.00000000       0.00000000       0.00000000 </v>
   <v>      -0.00219157       0.00713724      -0.00356718 </v>
   <v>      -0.00024739      -0.00263939      -0.00052354 </v>
   <v>       0.00000000       0.00000000       0.00000000 </v>
   <v>       0.00000000       0.00000000       0.00000000 </v>
   <v>       0.00000000       0.00000000       0.00000000 </v>
   <v>      -0.00068807      -0.00101733       0.00466053 </v>
   <v>       0.00292017       0.00575619      -0.00095008 </v>
   <v>       0.00000000       0.00000000       0.00000000 </v>
   <v>       0.00000000       0.00000000       0.00000000 </v>
   <v>       0.00556787      -0.00939492      -0.00300262 </v>
   <v>       0.00000000       0.00000000       0.00000000 </v>
   <v>      -0.00290014      -0.00553332      -0.00311542 </v>
   <v>      -0.00057468      -0.00461191      -0.00235475 </v>
   <v>       0.00000000       0.00000000       0.00000000 </v>
   <v>       0.00000000       0.00000000       0.00000000 </v>
   <v>       0.00000000       0.00000000       0.00000000 </v>
   <v>      -0.00841206      -0.00495330      -0.00416323 </v>
   <v>       0.00293948       0.00402393      -0.00976593 </v>
   <v>       0.00000000       0.00000000       0.00000000 </v>
   <v>       0.00000000       0.00000000       0.00000000 </v>
   <v>       0.00000000       0.00000000       0.00000000 </v>
   <v>      -0.00868082       0.00549965      -0.00186090 </v>
   <v>       0.00178374       0.00132781       0.00114004 </v>
   <v>       0.00000000       0.00000000       0.00000000 </v>
   <v>       0.00000000       0.00000000       0.00000000 </v>
   <v>       0.00334281      -0.00863455      -0.00628356 </v>
   <v>       0.00000000       0.00000000       0.00000000 </v>
   <v>      -0.01859665      -0.01445141      -0.00621493 </v>
   <v>      -0.00519262      -0.00699503       0.00222894 </v>
   <v>       0.00000000       0.00000000       0.00000000 </v>
   <v>       0.00000000       0.00000000       0.00000000 </v>
   <v>       0.00000000       0.00000000       0.00000000 </v>
   <v>      -0.00202678       0.00901940      -0.00569377 </v>
   <v>      -0.00323050      -0.01076195       0.00917467 </v>
   <v>       0.00000000       0.00000000       0.00000000 </v>
   <v>       0.00000000       0.00000000       0.00000000 </v>
   <v>       0.00000000       0.00000000       0.00000000 </v>
   <v>      -0.00143906      -0.00246368       0.00010631 </v>
   <v>       0.00323995       0.01032454       0.00083098 </v>
   <v>       0.00000000       0.00000000       0.00000000 </v>
   <v>       0.00000000       0.00000000       0.00000000 </v>
   <v>      -0.00970621      -0.00749004      -0.00067408 </v>
   <v>       0.00000000       0.00000000       0.00000000 </v>
   <v>      -0.00210538       0.00661341      -0.00089501 </v>
   <v>      -0.00082012      -0.00035795       0.00149152 </v>
   <v>       0.00000000       0.00000000       0.00000000 </v>
   <v>       0.00000000       0.00000000       0.00000000 </v>
   <v>       0.00000000       0.00000000       0.00000000 </v>
   <v>       0.00309655       0.00503148      -0.00374312 </v>
   <v>      -0.00162268       0.00304568      -0.00853511 </v>
   <v>       0.00000000       0.00000000       0.00000000 </v>
   <v>       0.00000000       0.00000000       0.00000000 </v>
   <v>       0.00773929       0.00845022       0.00171654 </v>
   <v>       0.00000000       0.00000000       0.00000000 </v>
   <v>       0.00475249       0.00391139      -0.00314999 </v>
   <v>       0.00483958       0.00537161      -0.00695303 </v>
   <v>       0.00000000       0.00000000       0.00000000 </v>
   <v>       0.00000000       0.00000000       0.00000000 </v>
   <v>       0.00000000       0.00000000       0.00000000 </v>
   <v>       0.00118261      -0.00144405       0.00253984 </v>
   <v>       0.01157884       0.00677362       0.00159022 </v>
   <v>       0.00000000       0.00000000       0.00000000 </v>
   <v>       0.00000000       0.00000000       0.00000000 </v>
   <v>       0.00000000       0.00000000       0.00000000 </v>
   <v>       0.01394692       0.00612877       0.00337898 </v>
   <v>      -0.00455725      -0.00394564      -0.00140539 </v>
   <v>       0.00000000       0.00000000       0.00000000 </v>
   <v>       0.00000000       0.00000000       0.00000000 </v>
   <v>       0.00604089      -0.00107230      -0.00389407 </v>
   <v>       0.00000000       0.00000000       0.00000000 </v>
   <v>       0.00597197       0.00192023      -0.00018945 </v>
   <v>       0.00403866       0.00653801       0.00449215 </v>
   <v>       0.00000000       0.00000000       0.00000000 </v>
   <v>       0.00000000       0.00000000       0.00000000 </v>
   <v>       0.00000000       0.00000000       0.00000000 </v>
   <v>       0.00093216       0.00003562      -0.00495137 </v>
   <v>       0.00428779       0.01028486       0.00180193 </v>
   <v>       0.00000000       0.00000000       0.00000000 </v>
   <v>       0.00000000       0.00000000       0.00000000 </v>
   <v>      -0.00471295      -0.00319665       0.00142181 </v>
   <v>      -0.00219451      -0.00225243       0.00156285 </v>
   <v>      -0.00293366      -0.01058828      -0.00901653 </v>
   <v>      -0.00453770       0.00235362      -0.00029793 </v>
   <v>       0.00025693       0.00005533      -0.00095721 </v>
   <v>       0.00909752       0.00323809      -0.00205221 </v>
   <v>      -0.00202263       0.00149516       0.00374568 </v>
   <v>       0.00421693       0.00188175       0.00073263 </v>
   <v>       0.01338627       0.00646911      -0.00017596 </v>
   <v>       0.00089437       0.00305704      -0.00116829 </v>
   <v>      -0.00737272      -0.00765309       0.00436157 </v>
   <v>      -0.00333092       0.01022792      -0.00423626 </v>
   <v>       0.01369399       0.00115756      -0.00087619 </v>
   <v>      -0.00268826       0.00582827       0.00648544 </v>
   <v>      -0.00722709      -0.00799609      -0.00511337 </v>
   <v>       0.00197169      -0.00117400       0.00055447 </v>
   <v>      -0.00277287      -0.00383912       0.00220043 </v>
   <v>      -0.00263623      -0.00268911       0.00251662 </v>
   <v>      -0.00737239      -0.00840571       0.00220691 </v>
   <v>      -0.00365217      -0.00762514       0.00159693 </v>
   <v>      -0.00068685       0.00274916       0.00061470 </v>
   <v>      -0.00611253      -0.00199153       0.00479462 </v>
   <v>      -0.00695922       0.00347292       0.00124535 </v>
   <v>       0.00115358       0.00390460       0.00645996 </v>
   <v>      -0.00324101       0.00169532      -0.00251417 </v>
   <v>      -0.00201215      -0.00227729       0.00233446 </v>
   <v>      -0.00655151      -0.00714469       0.00103986 </v>
   <v>       0.00144755       0.00759166      -0.00080352 </v>
   <v>       0.00131484      -0.00324755      -0.00106659 </v>
   <v>       0.00055388      -0.00295067      -0.00415866 </v>
   <v>       0.00485383       0.01135575      -0.00030154 </v>
   <v>      -0.00409614      -0.00286262      -0.00295827 </v>
   <v>      -0.02367885      -0.01339833      -0.02540977 </v>
   <v>      -0.01500188       0.02063037       0.01207942 </v>
   <v>       0.00001419      -0.00343949       0.01363773 </v>
   <v>       0.01775684       0.00019980       0.00542926 </v>
   <v>       0.00593948      -0.06785362       0.00538807 </v>
   <v>       0.00577869       0.00727453       0.00705023 </v>
   <v>       0.00750164      -0.00849271      -0.00864571 </v>
   <v>      -0.01155972      -0.03250483       0.03940871 </v>
   <v>       0.00662302       0.04444323       0.02946481 </v>
   <v>      -0.03708088      -0.00274771      -0.00823918 </v>
   <v>       0.02737272       0.02278727      -0.02499685 </v>
   <v>       0.00840448       0.00019372      -0.00037943 </v>
   <v>       0.00682258       0.01825091       0.00264465 </v>
   <v>      -0.01900926      -0.01294172      -0.00395787 </v>
   <v>       0.01673471       0.02259346      -0.02623142 </v>
   <v>       0.00469526       0.02534352       0.00788424 </v>
   <v>       0.02707308       0.00206323       0.00506921 </v>
   <v>      -0.03332370      -0.00652876       0.00810878 </v>
   <v>       0.02742510       0.04048195      -0.02251898 </v>
   <v>       0.03345121       0.01531926      -0.00873711 </v>
   <v>       0.00718113       0.00119055       0.03008022 </v>
   <v>      -0.01950186       0.00164463       0.01232422 </v>
   <v>      -0.01598415      -0.02222835      -0.01798165 </v>
   <v>      -0.00202968      -0.02256947      -0.01835831 </v>
   <v>      -0.01698474      -0.01427124      -0.01415262 </v>
   <v>      -0.02714020      -0.04983921      -0.01047518 </v>
   <v>       0.05342414       0.02237607       0.00776771 </v>
   <v>      -0.01643446      -0.00674376       0.01165248 </v>
   <v>       0.00318579      -0.00598932      -0.02425271 </v>
   <v>      -0.00075612      -0.00664548      -0.01095273 </v>
   <v>       0.03851394       0.00776348      -0.00762498 </v>
   <v>       0.00720050       0.00039719       0.02099730 </v>
   <v>       0.04215875       0.02717990       0.01920660 </v>
   <v>      -0.04215929      -0.02177176       0.01406594 </v>
   <v>       0.00134894       0.01506530      -0.01471967 </v>
   <v>       0.00477601       0.03656959       0.00456577 </v>
   <v>      -0.00225523       0.00801471      -0.01135027 </v>
   <v>      -0.00478967      -0.04779817      -0.01375022 </v>
   <v>       0.00679835       0.01123279      -0.01840949 </v>
   <v>      -0.02833289      -0.03634887       0.01335593 </v>
  </varray>
  <nose>
   <v>      -3.00000000       0.00000000     300.00000000     300.00000000 </v>
  </nose>
 </structure>
 <calculation>
  <scstep>
   <time name="dav">    3.25    3.28</time>
   <time name="total">    4.36    4.41</time>
   <energy>
    <i name="alphaZ">   2397.92104513 </i>
    <i name="ewald"> 136380.32841298 </i>
    <i name="hartreedc">-216237.40979778 </i>
    <i name="XCdc">   3447.02064461 </i>
    <i name="pawpsdc">  70402.76065631 </i>
    <i name="pawaedc"> -69652.40325500 </i>
    <i name="eentropy">     -0.04416559 </i>
    <i name="bandstr">   6960.15408481 </i>
    <i name="atom">  87776.77885653 </i>
    <i name="e_fr_energy">  21475.10648201 </i>
    <i name="e_wo_entrp">  21475.15064760 </i>
    <i name="e_0_energy">  21475.12856480 </i>
   </energy>
  </scstep>
  <scstep>
   <time name="dav">    3.24    3.24</time>
   <time name="total">    3.24    3.24</time>
   <energy>
    <i name="e_fr_energy">   6189.82933922 </i>
    <i name="e_wo_entrp">   6189.99554618 </i>
    <i name="e_0_energy">   6189.91244270 </i>
   </energy>
  </scstep>
  <scstep>
   <time name="dav">    3.74    3.75</time>
   <time name="total">    3.75    3.75</time>
   <energy>
    <i name="e_fr_energy">     47.67051341 </i>
    <i name="e_wo_entrp">     47.81612957 </i>
    <i name="e_0_energy">     47.74332149 </i>
   </energy>
  </scstep>
  <scstep>
   <time name="dav">    4.07    4.08</time>
   <time name="total">    4.08    4.08</time>
   <energy>
    <i name="e_fr_energy">  -1380.06803263 </i>
    <i name="e_wo_entrp">  -1380.02117190 </i>
    <i name="e_0_energy">  -1380.04460227 </i>
   </energy>
  </scstep>
  <scstep>
   <time name="dav">    4.67    4.68</time>
   <time name="total">    4.97    4.97</time>
   <energy>
    <i name="e_fr_energy">  -1486.11804322 </i>
    <i name="e_wo_entrp">  -1485.95963264 </i>
    <i name="e_0_energy">  -1486.03883793 </i>
   </energy>
  </scstep>
  <scstep>
   <time name="diag">    0.70    0.70</time>
   <time name="diis">    2.45    2.45</time>
   <time name="orth">    0.13    0.13</time>
   <time name="total">    4.60    4.60</time>
   <energy>
    <i name="e_fr_energy">  -1290.14028572 </i>
    <i name="e_wo_entrp">  -1289.77688680 </i>
    <i name="e_0_energy">  -1289.95858626 </i>
   </energy>
  </scstep>
  <scstep>
   <time name="diag">    0.71    0.71</time>
   <time name="diis">    2.50    2.50</time>
   <time name="orth">    0.14    0.14</time>
   <time name="total">    4.65    4.65</time>
   <energy>
    <i name="e_fr_energy">  -1198.23915828 </i>
    <i name="e_wo_entrp">  -1198.06824073 </i>
    <i name="e_0_energy">  -1198.15369950 </i>
   </energy>
  </scstep>
  <scstep>
   <time name="diag">    0.70    0.70</time>
   <time name="diis">    2.64    2.64</time>
   <time name="orth">    0.14    0.14</time>
   <time name="total">    4.78    4.78</time>
   <energy>
    <i name="e_fr_energy">  -1669.19295124 </i>
    <i name="e_wo_entrp">  -1669.04688055 </i>
    <i name="e_0_energy">  -1669.11991590 </i>
   </energy>
  </scstep>
  <scstep>
   <time name="diag">    0.71    0.71</time>
   <time name="diis">    2.42    2.42</time>
   <time name="orth">    0.14    0.14</time>
   <time name="total">    4.57    4.58</time>
   <energy>
    <i name="e_fr_energy">  -1210.23656504 </i>
    <i name="e_wo_entrp">  -1210.12682269 </i>
    <i name="e_0_energy">  -1210.18169387 </i>
   </energy>
  </scstep>
  <scstep>
   <time name="diag">    0.70    0.70</time>
   <time name="diis">    2.42    2.42</time>
   <time name="orth">    0.13    0.13</time>
   <time name="total">    4.55    4.56</time>
   <energy>
    <i name="e_fr_energy">  -1238.06419364 </i>
    <i name="e_wo_entrp">  -1238.02698691 </i>
    <i name="e_0_energy">  -1238.04559028 </i>
   </energy>
  </scstep>
  <scstep>
   <time name="diag">    0.70    0.71</time>
   <time name="diis">    2.56    2.56</time>
   <time name="orth">    0.13    0.13</time>
   <time name="total">    4.71    4.71</time>
   <energy>
    <i name="e_fr_energy">  -1150.27680959 </i>
    <i name="e_wo_entrp">  -1150.21993389 </i>
    <i name="e_0_energy">  -1150.24837174 </i>
   </energy>
  </scstep>
  <scstep>
   <time name="diag">    0.70    0.70</time>
   <time name="diis">    2.54    2.54</time>
   <time name="orth">    0.13    0.13</time>
   <time name="total">    4.69    4.70</time>
   <energy>
    <i name="e_fr_energy">  -1126.77543857 </i>
    <i name="e_wo_entrp">  -1126.71658646 </i>
    <i name="e_0_energy">  -1126.74601251 </i>
   </energy>
  </scstep>
  <scstep>
   <time name="diag">    0.68    0.68</time>
   <time name="diis">    2.50    2.50</time>
   <time name="orth">    0.13    0.13</time>
   <time name="total">    4.64    4.64</time>
   <energy>
    <i name="e_fr_energy">  -1127.10562604 </i>
    <i name="e_wo_entrp">  -1127.05083179 </i>
    <i name="e_0_energy">  -1127.07822892 </i>
   </energy>
  </scstep>
  <scstep>
   <time name="diag">    0.70    0.70</time>
   <time name="diis">    2.52    2.52</time>
   <time name="orth">    0.13    0.13</time>
   <time name="total">    4.67    4.67</time>
   <energy>
    <i name="e_fr_energy">  -1127.10358639 </i>
    <i name="e_wo_entrp">  -1126.98879699 </i>
    <i name="e_0_energy">  -1127.04619169 </i>
   </energy>
  </scstep>
  <scstep>
   <time name="diag">    0.69    0.69</time>
   <time name="diis">    2.57    2.57</time>
   <time name="orth">    0.13    0.13</time>
   <time name="total">    4.70    4.70</time>
   <energy>
    <i name="e_fr_energy">  -1135.19431288 </i>
    <i name="e_wo_entrp">  -1135.13398973 </i>
    <i name="e_0_energy">  -1135.16415130 </i>
   </energy>
  </scstep>
  <scstep>
   <time name="diag">    0.70    0.70</time>
   <time name="diis">    2.59    2.59</time>
   <time name="orth">    0.13    0.13</time>
   <time name="total">    4.74    4.74</time>
   <energy>
    <i name="e_fr_energy">  -1136.07613810 </i>
    <i name="e_wo_entrp">  -1135.98999902 </i>
    <i name="e_0_energy">  -1136.03306856 </i>
   </energy>
  </scstep>
  <scstep>
   <time name="diag">    0.71    0.71</time>
   <time name="diis">    2.72    2.72</time>
   <time name="orth">    0.13    0.13</time>
   <time name="total">    4.86    4.86</time>
   <energy>
    <i name="e_fr_energy">  -1138.29108374 </i>
    <i name="e_wo_entrp">  -1138.20500121 </i>
    <i name="e_0_energy">  -1138.24804248 </i>
   </energy>
  </scstep>
  <scstep>
   <time name="diag">    0.70    0.70</time>
   <time name="diis">    2.77    2.78</time>
   <time name="orth">    0.13    0.13</time>
   <time name="total">    4.91    4.91</time>
   <energy>
    <i name="e_fr_energy">  -1141.57994440 </i>
    <i name="e_wo_entrp">  -1141.51807395 </i>
    <i name="e_0_energy">  -1141.54900917 </i>
   </energy>
  </scstep>
  <scstep>
   <time name="diag">    0.70    0.70</time>
   <time name="diis">    2.99    2.99</time>
   <time name="orth">    0.13    0.13</time>
   <time name="total">    5.12    5.13</time>
   <energy>
    <i name="e_fr_energy">  -1143.44163632 </i>
    <i name="e_wo_entrp">  -1143.39842285 </i>
    <i name="e_0_energy">  -1143.42002958 </i>
   </energy>
  </scstep>
  <scstep>
   <time name="diag">    0.70    0.70</time>
   <time name="diis">    2.97    2.97</time>
   <time name="orth">    0.13    0.13</time>
   <time name="total">    5.10    5.11</time>
   <energy>
    <i name="e_fr_energy">  -1144.79861380 </i>
    <i name="e_wo_entrp">  -1144.76686911 </i>
    <i name="e_0_energy">  -1144.78274145 </i>
   </energy>
  </scstep>
  <scstep>
   <time name="diag">    0.71    0.71</time>
   <time name="diis">    2.93    2.93</time>
   <time name="orth">    0.13    0.13</time>
   <time name="total">    5.07    5.07</time>
   <energy>
    <i name="e_fr_energy">  -1145.42605476 </i>
    <i name="e_wo_entrp">  -1145.37614507 </i>
    <i name="e_0_energy">  -1145.40109991 </i>
   </energy>
  </scstep>
  <scstep>
   <time name="diag">    0.71    0.71</time>
   <time name="diis">    2.96    2.96</time>
   <time name="orth">    0.13    0.13</time>
   <time name="total">    5.09    5.09</time>
   <energy>
    <i name="e_fr_energy">  -1145.98721255 </i>
    <i name="e_wo_entrp">  -1145.96933833 </i>
    <i name="e_0_energy">  -1145.97827544 </i>
   </energy>
  </scstep>
  <scstep>
   <time name="diag">    0.71    0.71</time>
   <time name="diis">    3.13    3.13</time>
   <time name="orth">    0.13    0.13</time>
   <time name="total">    5.26    5.26</time>
   <energy>
    <i name="e_fr_energy">  -1141.68705315 </i>
    <i name="e_wo_entrp">  -1141.66346167 </i>
    <i name="e_0_energy">  -1141.67525741 </i>
   </energy>
  </scstep>
  <scstep>
   <time name="diag">    0.71    0.71</time>
   <time name="diis">    3.08    3.08</time>
   <time name="orth">    0.13    0.13</time>
   <time name="total">    5.22    5.22</time>
   <energy>
    <i name="e_fr_energy">  -1137.91335253 </i>
    <i name="e_wo_entrp">  -1137.89953343 </i>
    <i name="e_0_energy">  -1137.90644298 </i>
   </energy>
  </scstep>
  <scstep>
   <time name="diag">    0.73    0.73</time>
   <time name="diis">    2.98    2.98</time>
   <time name="orth">    0.13    0.13</time>
   <time name="total">    5.14    5.14</time>
   <energy>
    <i name="e_fr_energy">  -1138.02279619 </i>
    <i name="e_wo_entrp">  -1138.02279207 </i>
    <i name="e_0_energy">  -1138.02279413 </i>
   </energy>
  </scstep>
  <scstep>
   <time name="diag">    0.71    0.71</time>
   <time name="diis">    3.04    3.05</time>
   <time name="orth">    0.13    0.13</time>
   <time name="total">    5.18    5.18</time>
   <energy>
    <i name="e_fr_energy">  -1146.56946636 </i>
    <i name="e_wo_entrp">  -1146.56530775 </i>
    <i name="e_0_energy">  -1146.56738706 </i>
   </energy>
  </scstep>
  <scstep>
   <time name="diag">    0.70    0.70</time>
   <time name="diis">    3.06    3.06</time>
   <time name="orth">    0.13    0.13</time>
   <time name="total">    5.20    5.20</time>
   <energy>
    <i name="e_fr_energy">  -1158.39834272 </i>
    <i name="e_wo_entrp">  -1158.36139665 </i>
    <i name="e_0_energy">  -1158.37986969 </i>
   </energy>
  </scstep>
  <scstep>
   <time name="diag">    0.70    0.70</time>
   <time name="diis">    2.59    2.59</time>
   <time name="orth">    0.13    0.13</time>
   <time name="total">    4.72    4.72</time>
   <energy>
    <i name="e_fr_energy">  -1157.17021315 </i>
    <i name="e_wo_entrp">  -1157.11996871 </i>
    <i name="e_0_energy">  -1157.14509093 </i>
   </energy>
  </scstep>
  <scstep>
   <time name="diag">    0.69    0.69</time>
   <time name="diis">    2.84    2.85</time>
   <time name="orth">    0.13    0.13</time>
   <time name="total">    4.96    4.97</time>
   <energy>
    <i name="e_fr_energy">  -1162.04180421 </i>
    <i name="e_wo_entrp">  -1162.01976139 </i>
    <i name="e_0_energy">  -1162.03078280 </i>
   </energy>
  </scstep>
  <scstep>
   <time name="diag">    0.69    0.69</time>
   <time name="diis">    2.71    2.71</time>
   <time name="orth">    0.13    0.13</time>
   <time name="total">    4.83    4.83</time>
   <energy>
    <i name="e_fr_energy">  -1163.34432962 </i>
    <i name="e_wo_entrp">  -1163.29564100 </i>
    <i name="e_0_energy">  -1163.31998531 </i>
   </energy>
  </scstep>
  <scstep>
   <time name="diag">    0.69    0.69</time>
   <time name="diis">    2.54    2.55</time>
   <time name="orth">    0.13    0.13</time>
   <time name="total">    4.67    4.67</time>
   <energy>
    <i name="e_fr_energy">  -1164.47928899 </i>
    <i name="e_wo_entrp">  -1164.42295283 </i>
    <i name="e_0_energy">  -1164.45112091 </i>
   </energy>
  </scstep>
  <scstep>
   <time name="diag">    0.69    0.69</time>
   <time name="diis">    2.67    2.67</time>
   <time name="orth">    0.13    0.13</time>
   <time name="total">    4.79    4.79</time>
   <energy>
    <i name="e_fr_energy">  -1165.05498177 </i>
    <i name="e_wo_entrp">  -1165.01358566 </i>
    <i name="e_0_energy">  -1165.03428372 </i>
   </energy>
  </scstep>
  <scstep>
   <time name="diag">    0.69    0.69</time>
   <time name="diis">    2.80    2.80</time>
   <time name="orth">    0.13    0.13</time>
   <time name="total">    4.92    4.92</time>
   <energy>
    <i name="e_fr_energy">  -1165.05948178 </i>
    <i name="e_wo_entrp">  -1165.01576914 </i>
    <i name="e_0_energy">  -1165.03762546 </i>
   </energy>
  </scstep>
  <scstep>
   <time name="diag">    0.69    0.69</time>
   <time name="diis">    2.89    2.90</time>
   <time name="orth">    0.13    0.13</time>
   <time name="total">    5.01    5.02</time>
   <energy>
    <i name="e_fr_energy">  -1165.59454804 </i>
    <i name="e_wo_entrp">  -1165.52891418 </i>
    <i name="e_0_energy">  -1165.56173111 </i>
   </energy>
  </scstep>
  <scstep>
   <time name="diag">    0.69    0.69</time>
   <time name="diis">    3.18    3.18</time>
   <time name="orth">    0.13    0.13</time>
   <time name="total">    5.30    5.30</time>
   <energy>
    <i name="e_fr_energy">  -1169.27801909 </i>
    <i name="e_wo_entrp">  -1169.21274306 </i>
    <i name="e_0_energy">  -1169.24538108 </i>
   </energy>
  </scstep>
  <scstep>
   <time name="diag">    0.69    0.69</time>
   <time name="diis">    2.97    2.97</time>
   <time name="orth">    0.13    0.13</time>
   <time name="total">    5.09    5.10</time>
   <energy>
    <i name="e_fr_energy">  -1169.81688825 </i>
    <i name="e_wo_entrp">  -1169.74462116 </i>
    <i name="e_0_energy">  -1169.78075470 </i>
   </energy>
  </scstep>
  <scstep>
   <time name="diag">    0.69    0.69</time>
   <time name="diis">    3.07    3.08</time>
   <time name="orth">    0.13    0.13</time>
   <time name="total">    5.21    5.21</time>
   <energy>
    <i name="e_fr_energy">  -1171.91328423 </i>
    <i name="e_wo_entrp">  -1171.83696763 </i>
    <i name="e_0_energy">  -1171.87512593 </i>
   </energy>
  </scstep>
  <scstep>
   <time name="diag">    0.69    0.69</time>
   <time name="diis">    3.00    3.00</time>
   <time name="orth">    0.13    0.13</time>
   <time name="total">    5.12    5.12</time>
   <energy>
    <i name="e_fr_energy">  -1173.31263303 </i>
    <i name="e_wo_entrp">  -1173.26438635 </i>
    <i name="e_0_energy">  -1173.28850969 </i>
   </energy>
  </scstep>
  <scstep>
   <time name="diag">    0.70    0.71</time>
   <time name="diis">    3.05    3.06</time>
   <time name="orth">    0.13    0.13</time>
   <time name="total">    5.19    5.19</time>
   <energy>
    <i name="e_fr_energy">  -1175.45461718 </i>
    <i name="e_wo_entrp">  -1175.40301343 </i>
    <i name="e_0_energy">  -1175.42881531 </i>
   </energy>
  </scstep>
  <scstep>
   <time name="diag">    0.72    0.72</time>
   <time name="diis">    3.17    3.17</time>
   <time name="orth">    0.13    0.13</time>
   <time name="total">    5.32    5.32</time>
   <energy>
    <i name="e_fr_energy">  -1178.29413706 </i>
    <i name="e_wo_entrp">  -1178.24354723 </i>
    <i name="e_0_energy">  -1178.26884215 </i>
   </energy>
  </scstep>
  <scstep>
   <time name="diag">    0.70    0.70</time>
   <time name="diis">    3.10    3.10</time>
   <time name="orth">    0.13    0.13</time>
   <time name="total">    5.23    5.24</time>
   <energy>
    <i name="e_fr_energy">  -1180.25285542 </i>
    <i name="e_wo_entrp">  -1180.21615408 </i>
    <i name="e_0_energy">  -1180.23450475 </i>
   </energy>
  </scstep>
  <scstep>
   <time name="diag">    0.72    0.72</time>
   <time name="diis">    2.91    2.91</time>
   <time name="orth">    0.13    0.13</time>
   <time name="total">    5.07    5.08</time>
   <energy>
    <i name="e_fr_energy">  -1180.90476917 </i>
    <i name="e_wo_entrp">  -1180.86192630 </i>
    <i name="e_0_energy">  -1180.88334773 </i>
   </energy>
  </scstep>
  <scstep>
   <time name="diag">    0.72    0.72</time>
   <time name="diis">    2.82    2.82</time>
   <time name="orth">    0.13    0.13</time>
   <time name="total">    4.99    4.99</time>
   <energy>
    <i name="e_fr_energy">  -1181.44998313 </i>
    <i name="e_wo_entrp">  -1181.39747094 </i>
    <i name="e_0_energy">  -1181.42372703 </i>
   </energy>
  </scstep>
  <scstep>
   <time name="diag">    0.72    0.72</time>
   <time name="diis">    2.65    2.65</time>
   <time name="orth">    0.13    0.13</time>
   <time name="total">    4.80    4.80</time>
   <energy>
    <i name="e_fr_energy">  -1181.83897304 </i>
    <i name="e_wo_entrp">  -1181.78998309 </i>
    <i name="e_0_energy">  -1181.81447806 </i>
   </energy>
  </scstep>
  <scstep>
   <time name="diag">    0.72    0.72</time>
   <time name="diis">    2.42    2.42</time>
   <time name="orth">    0.13    0.13</time>
   <time name="total">    4.58    4.58</time>
   <energy>
    <i name="e_fr_energy">  -1181.95035133 </i>
    <i name="e_wo_entrp">  -1181.90496071 </i>
    <i name="e_0_energy">  -1181.92765602 </i>
   </energy>
  </scstep>
  <scstep>
   <time name="diag">    0.70    0.71</time>
   <time name="diis">    2.69    2.70</time>
   <time name="orth">    0.13    0.13</time>
   <time name="total">    4.83    4.83</time>
   <energy>
    <i name="e_fr_energy">  -1182.25494095 </i>
    <i name="e_wo_entrp">  -1182.21743294 </i>
    <i name="e_0_energy">  -1182.23618694 </i>
   </energy>
  </scstep>
  <scstep>
   <time name="diag">    0.70    0.71</time>
   <time name="diis">    3.03    3.03</time>
   <time name="orth">    0.13    0.13</time>
   <time name="total">    5.17    5.17</time>
   <energy>
    <i name="e_fr_energy">  -1182.74672208 </i>
    <i name="e_wo_entrp">  -1182.71520989 </i>
    <i name="e_0_energy">  -1182.73096599 </i>
   </energy>
  </scstep>
  <scstep>
   <time name="diag">    0.70    0.70</time>
   <time name="diis">    3.10    3.10</time>
   <time name="orth">    0.13    0.13</time>
   <time name="total">    5.25    5.25</time>
   <energy>
    <i name="e_fr_energy">  -1184.08016411 </i>
    <i name="e_wo_entrp">  -1184.04196755 </i>
    <i name="e_0_energy">  -1184.06106583 </i>
   </energy>
  </scstep>
  <scstep>
   <time name="diag">    0.71    0.71</time>
   <time name="diis">    3.00    3.00</time>
   <time name="orth">    0.13    0.13</time>
   <time name="total">    5.15    5.15</time>
   <energy>
    <i name="e_fr_energy">  -1184.88166070 </i>
    <i name="e_wo_entrp">  -1184.84238723 </i>
    <i name="e_0_energy">  -1184.86202396 </i>
   </energy>
  </scstep>
  <scstep>
   <time name="diag">    0.70    0.70</time>
   <time name="diis">    3.02    3.02</time>
   <time name="orth">    0.13    0.13</time>
   <time name="total">    5.16    5.16</time>
   <energy>
    <i name="e_fr_energy">  -1186.07109697 </i>
    <i name="e_wo_entrp">  -1186.02926548 </i>
    <i name="e_0_energy">  -1186.05018123 </i>
   </energy>
  </scstep>
  <scstep>
   <time name="diag">    0.70    0.70</time>
   <time name="diis">    3.25    3.26</time>
   <time name="orth">    0.14    0.14</time>
   <time name="total">    5.39    5.40</time>
   <energy>
    <i name="e_fr_energy">  -1189.84753514 </i>
    <i name="e_wo_entrp">  -1189.81240315 </i>
    <i name="e_0_energy">  -1189.82996914 </i>
   </energy>
  </scstep>
  <scstep>
   <time name="diag">    0.71    0.71</time>
   <time name="diis">    2.82    2.82</time>
   <time name="orth">    0.13    0.13</time>
   <time name="total">    4.97    4.97</time>
   <energy>
    <i name="e_fr_energy">  -1189.79177973 </i>
    <i name="e_wo_entrp">  -1189.75625932 </i>
    <i name="e_0_energy">  -1189.77401953 </i>
   </energy>
  </scstep>
  <scstep>
   <time name="diag">    0.71    0.71</time>
   <time name="diis">    2.57    2.57</time>
   <time name="orth">    0.13    0.13</time>
   <time name="total">    4.72    4.72</time>
   <energy>
    <i name="e_fr_energy">  -1189.80406327 </i>
    <i name="e_wo_entrp">  -1189.76792929 </i>
    <i name="e_0_energy">  -1189.78599628 </i>
   </energy>
  </scstep>
  <scstep>
   <time name="diag">    0.71    0.71</time>
   <time name="diis">    2.97    2.97</time>
   <time name="orth">    0.13    0.13</time>
   <time name="total">    5.12    5.12</time>
   <energy>
    <i name="e_fr_energy">  -1190.00519607 </i>
    <i name="e_wo_entrp">  -1189.97323582 </i>
    <i name="e_0_energy">  -1189.98921595 </i>
   </energy>
  </scstep>
  <scstep>
   <time name="diag">    0.71    0.71</time>
   <time name="diis">    2.47    2.47</time>
   <time name="orth">    0.13    0.13</time>
   <time name="total">    4.62    4.62</time>
   <energy>
    <i name="e_fr_energy">  -1190.03827310 </i>
    <i name="e_wo_entrp">  -1190.00447223 </i>
    <i name="e_0_energy">  -1190.02137266 </i>
   </energy>
  </scstep>
  <scstep>
   <time name="diag">    0.72    0.72</time>
   <time name="diis">    3.12    3.12</time>
   <time name="orth">    0.13    0.13</time>
   <time name="total">    5.28    5.29</time>
   <energy>
    <i name="e_fr_energy">  -1189.98925205 </i>
    <i name="e_wo_entrp">  -1189.94446779 </i>
    <i name="e_0_energy">  -1189.96685992 </i>
   </energy>
  </scstep>
  <scstep>
   <time name="diag">    0.72    0.72</time>
   <time name="diis">    3.07    3.08</time>
   <time name="orth">    0.14    0.14</time>
   <time name="total">    5.24    5.25</time>
   <energy>
    <i name="e_fr_energy">  -1190.11447423 </i>
    <i name="e_wo_entrp">  -1190.07125927 </i>
    <i name="e_0_energy">  -1190.09286675 </i>
   </energy>
  </scstep>
  <scstep>
   <time name="diag">    0.71    0.71</time>
   <time name="diis">    3.23    3.23</time>
   <time name="orth">    0.13    0.14</time>
   <time name="total">    5.37    5.37</time>
   <energy>
    <i name="e_fr_energy">  -1190.22923297 </i>
    <i name="e_wo_entrp">  -1190.18584401 </i>
    <i name="e_0_energy">  -1190.20753849 </i>
   </energy>
  </scstep>
  <scstep>
   <time name="diag">    0.72    0.72</time>
   <time name="diis">    3.18    3.18</time>
   <time name="orth">    0.14    0.14</time>
   <time name="total">    5.33    5.34</time>
   <energy>
    <i name="e_fr_energy">  -1191.00027058 </i>
    <i name="e_wo_entrp">  -1190.99383097 </i>
    <i name="e_0_energy">  -1190.99705077 </i>
   </energy>
  </scstep>
  <scstep>
   <time name="diag">    0.72    0.72</time>
   <time name="diis">    2.99    3.00</time>
   <time name="orth">    0.14    0.14</time>
   <time name="total">    5.16    5.16</time>
   <energy>
    <i name="e_fr_energy">  -1191.23349087 </i>
    <i name="e_wo_entrp">  -1191.23085703 </i>
    <i name="e_0_energy">  -1191.23217395 </i>
   </energy>
  </scstep>
  <scstep>
   <time name="diag">    0.72    0.72</time>
   <time name="diis">    3.18    3.18</time>
   <time name="orth">    0.14    0.14</time>
   <time name="total">    5.34    5.34</time>
   <energy>
    <i name="e_fr_energy">  -1191.74741159 </i>
    <i name="e_wo_entrp">  -1191.74540208 </i>
    <i name="e_0_energy">  -1191.74640683 </i>
   </energy>
  </scstep>
  <scstep>
   <time name="diag">    0.70    0.71</time>
   <time name="diis">    3.00    3.00</time>
   <time name="orth">    0.13    0.13</time>
   <time name="total">    5.14    5.14</time>
   <energy>
    <i name="e_fr_energy">  -1191.94352657 </i>
    <i name="e_wo_entrp">  -1191.94230484 </i>
    <i name="e_0_energy">  -1191.94291571 </i>
   </energy>
  </scstep>
  <scstep>
   <time name="diag">    0.70    0.70</time>
   <time name="diis">    3.04    3.04</time>
   <time name="orth">    0.13    0.13</time>
   <time name="total">    5.18    5.18</time>
   <energy>
    <i name="e_fr_energy">  -1192.36521412 </i>
    <i name="e_wo_entrp">  -1192.36378253 </i>
    <i name="e_0_energy">  -1192.36449832 </i>
   </energy>
  </scstep>
  <scstep>
   <time name="diag">    0.71    0.71</time>
   <time name="diis">    3.03    3.03</time>
   <time name="orth">    0.13    0.13</time>
   <time name="total">    5.17    5.18</time>
   <energy>
    <i name="e_fr_energy">  -1192.62640148 </i>
    <i name="e_wo_entrp">  -1192.62054342 </i>
    <i name="e_0_energy">  -1192.62347245 </i>
   </energy>
  </scstep>
  <scstep>
   <time name="diag">    0.72    0.72</time>
   <time name="diis">    2.88    2.88</time>
   <time name="orth">    0.13    0.13</time>
   <time name="total">    5.04    5.04</time>
   <energy>
    <i name="e_fr_energy">  -1192.77294638 </i>
    <i name="e_wo_entrp">  -1192.74267848 </i>
    <i name="e_0_energy">  -1192.75781243 </i>
   </energy>
  </scstep>
  <scstep>
   <time name="diag">    0.72    0.72</time>
   <time name="diis">    2.47    2.47</time>
   <time name="orth">    0.13    0.14</time>
   <time name="total">    4.63    4.63</time>
   <energy>
    <i name="e_fr_energy">  -1192.72712618 </i>
    <i name="e_wo_entrp">  -1192.69536742 </i>
    <i name="e_0_energy">  -1192.71124680 </i>
   </energy>
  </scstep>
  <scstep>
   <time name="diag">    0.72    0.72</time>
   <time name="diis">    2.00    2.00</time>
   <time name="orth">    0.14    0.14</time>
   <time name="total">    4.15    4.16</time>
   <energy>
    <i name="e_fr_energy">  -1192.71604075 </i>
    <i name="e_wo_entrp">  -1192.68503327 </i>
    <i name="e_0_energy">  -1192.70053701 </i>
   </energy>
  </scstep>
  <scstep>
   <time name="diag">    0.72    0.72</time>
   <time name="diis">    2.37    2.37</time>
   <time name="orth">    0.14    0.14</time>
   <time name="total">    4.53    4.54</time>
   <energy>
    <i name="e_fr_energy">  -1192.76125654 </i>
    <i name="e_wo_entrp">  -1192.73436514 </i>
    <i name="e_0_energy">  -1192.74781084 </i>
   </energy>
  </scstep>
  <scstep>
   <time name="diag">    0.72    0.72</time>
   <time name="diis">    1.68    1.68</time>
   <time name="orth">    0.13    0.13</time>
   <time name="total">    3.83    3.83</time>
   <energy>
    <i name="e_fr_energy">  -1192.75473675 </i>
    <i name="e_wo_entrp">  -1192.72767057 </i>
    <i name="e_0_energy">  -1192.74120366 </i>
   </energy>
  </scstep>
  <scstep>
   <time name="diag">    0.72    0.72</time>
   <time name="diis">    2.80    2.80</time>
   <time name="orth">    0.13    0.13</time>
   <time name="total">    4.95    4.95</time>
   <energy>
    <i name="e_fr_energy">  -1192.72838818 </i>
    <i name="e_wo_entrp">  -1192.69396835 </i>
    <i name="e_0_energy">  -1192.71117826 </i>
   </energy>
  </scstep>
  <scstep>
   <time name="diag">    0.72    0.72</time>
   <time name="diis">    3.15    3.15</time>
   <time name="orth">    0.13    0.13</time>
   <time name="total">    5.31    5.32</time>
   <energy>
    <i name="e_fr_energy">  -1192.74247404 </i>
    <i name="e_wo_entrp">  -1192.73733879 </i>
    <i name="e_0_energy">  -1192.73990642 </i>
   </energy>
  </scstep>
  <scstep>
   <time name="diag">    0.72    0.72</time>
   <time name="diis">    3.09    3.09</time>
   <time name="orth">    0.13    0.13</time>
   <time name="total">    5.23    5.24</time>
   <energy>
    <i name="e_fr_energy">  -1192.73583500 </i>
    <i name="e_wo_entrp">  -1192.70894435 </i>
    <i name="e_0_energy">  -1192.72238968 </i>
   </energy>
  </scstep>
  <scstep>
   <time name="diag">    0.72    0.72</time>
   <time name="diis">    3.02    3.02</time>
   <time name="orth">    0.13    0.13</time>
   <time name="total">    5.17    5.18</time>
   <energy>
    <i name="e_fr_energy">  -1192.72406630 </i>
    <i name="e_wo_entrp">  -1192.67459188 </i>
    <i name="e_0_energy">  -1192.69932909 </i>
   </energy>
  </scstep>
  <scstep>
   <time name="diag">    0.72    0.72</time>
   <time name="diis">    2.39    2.39</time>
   <time name="orth">    0.13    0.13</time>
   <time name="total">    4.55    4.55</time>
   <energy>
    <i name="e_fr_energy">  -1192.71867575 </i>
    <i name="e_wo_entrp">  -1192.66907843 </i>
    <i name="e_0_energy">  -1192.69387709 </i>
   </energy>
  </scstep>
  <scstep>
   <time name="diag">    0.72    0.72</time>
   <time name="diis">    2.82    2.83</time>
   <time name="orth">    0.13    0.13</time>
   <time name="total">    4.97    4.98</time>
   <energy>
    <i name="e_fr_energy">  -1192.71411051 </i>
    <i name="e_wo_entrp">  -1192.66675032 </i>
    <i name="e_0_energy">  -1192.69043042 </i>
   </energy>
  </scstep>
  <scstep>
   <time name="diag">    0.72    0.72</time>
   <time name="diis">    3.20    3.21</time>
   <time name="orth">    0.13    0.13</time>
   <time name="total">    5.35    5.36</time>
   <energy>
    <i name="e_fr_energy">  -1192.60598860 </i>
    <i name="e_wo_entrp">  -1192.57640971 </i>
    <i name="e_0_energy">  -1192.59119916 </i>
   </energy>
  </scstep>
  <scstep>
   <time name="diag">    0.72    0.72</time>
   <time name="diis">    3.14    3.14</time>
   <time name="orth">    0.13    0.13</time>
   <time name="total">    5.30    5.31</time>
   <energy>
    <i name="e_fr_energy">  -1192.78429125 </i>
    <i name="e_wo_entrp">  -1192.75936207 </i>
    <i name="e_0_energy">  -1192.77182666 </i>
   </energy>
  </scstep>
  <scstep>
   <time name="diag">    0.72    0.72</time>
   <time name="diis">    3.11    3.11</time>
   <time name="orth">    0.14    0.14</time>
   <time name="total">    5.26    5.27</time>
   <energy>
    <i name="e_fr_energy">  -1192.82460762 </i>
    <i name="e_wo_entrp">  -1192.80206125 </i>
    <i name="e_0_energy">  -1192.81333443 </i>
   </energy>
  </scstep>
  <scstep>
   <time name="diag">    0.72    0.72</time>
   <time name="diis">    2.98    2.98</time>
   <time name="orth">    0.14    0.14</time>
   <time name="total">    5.15    5.15</time>
   <energy>
    <i name="e_fr_energy">  -1192.86572656 </i>
    <i name="e_wo_entrp">  -1192.84199625 </i>
    <i name="e_0_energy">  -1192.85386140 </i>
   </energy>
  </scstep>
  <scstep>
   <time name="diag">    0.72    0.72</time>
   <time name="diis">    2.68    2.68</time>
   <time name="orth">    0.14    0.14</time>
   <time name="total">    4.84    4.84</time>
   <energy>
    <i name="e_fr_energy">  -1192.89469830 </i>
    <i name="e_wo_entrp">  -1192.87143690 </i>
    <i name="e_0_energy">  -1192.88306760 </i>
   </energy>
  </scstep>
  <scstep>
   <time name="diag">    0.72    0.72</time>
   <time name="diis">    3.22    3.23</time>
   <time name="orth">    0.13    0.13</time>
   <time name="total">    5.39    5.39</time>
   <energy>
    <i name="e_fr_energy">  -1192.67443908 </i>
    <i name="e_wo_entrp">  -1192.63906304 </i>
    <i name="e_0_energy">  -1192.65675106 </i>
   </energy>
  </scstep>
  <scstep>
   <time name="diag">    0.72    0.72</time>
   <time name="diis">    3.13    3.13</time>
   <time name="orth">    0.14    0.14</time>
   <time name="total">    5.30    5.30</time>
   <energy>
    <i name="e_fr_energy">  -1192.94229427 </i>
    <i name="e_wo_entrp">  -1192.91208529 </i>
    <i name="e_0_energy">  -1192.92718978 </i>
   </energy>
  </scstep>
  <scstep>
   <time name="diag">    0.72    0.72</time>
   <time name="diis">    3.11    3.11</time>
   <time name="orth">    0.14    0.14</time>
   <time name="total">    5.28    5.28</time>
   <energy>
    <i name="e_fr_energy">  -1193.13103604 </i>
    <i name="e_wo_entrp">  -1193.10300376 </i>
    <i name="e_0_energy">  -1193.11701990 </i>
   </energy>
  </scstep>
  <scstep>
   <time name="diag">    0.72    0.72</time>
   <time name="diis">    3.04    3.04</time>
   <time name="orth">    0.14    0.14</time>
   <time name="total">    5.20    5.21</time>
   <energy>
    <i name="e_fr_energy">  -1193.23255964 </i>
    <i name="e_wo_entrp">  -1193.20859293 </i>
    <i name="e_0_energy">  -1193.22057628 </i>
   </energy>
  </scstep>
  <scstep>
   <time name="diag">    0.72    0.72</time>
   <time name="diis">    3.05    3.05</time>
   <time name="orth">    0.14    0.14</time>
   <time name="total">    5.21    5.21</time>
   <energy>
    <i name="e_fr_energy">  -1193.34778533 </i>
    <i name="e_wo_entrp">  -1193.31339274 </i>
    <i name="e_0_energy">  -1193.33058903 </i>
   </energy>
  </scstep>
  <scstep>
   <time name="diag">    0.72    0.72</time>
   <time name="diis">    3.22    3.22</time>
   <time name="orth">    0.13    0.13</time>
   <time name="total">    5.38    5.38</time>
   <energy>
    <i name="e_fr_energy">  -1192.98058336 </i>
    <i name="e_wo_entrp">  -1192.97285719 </i>
    <i name="e_0_energy">  -1192.97672028 </i>
   </energy>
  </scstep>
  <scstep>
   <time name="diag">    0.72    0.72</time>
   <time name="diis">    3.17    3.17</time>
   <time name="orth">    0.13    0.13</time>
   <time name="total">    5.33    5.33</time>
   <energy>
    <i name="e_fr_energy">  -1193.31889752 </i>
    <i name="e_wo_entrp">  -1193.30000093 </i>
    <i name="e_0_energy">  -1193.30944922 </i>
   </energy>
  </scstep>
  <scstep>
   <time name="diag">    0.72    0.72</time>
   <time name="diis">    3.03    3.03</time>
   <time name="orth">    0.13    0.13</time>
   <time name="total">    5.18    5.19</time>
   <energy>
    <i name="e_fr_energy">  -1193.44777471 </i>
    <i name="e_wo_entrp">  -1193.42151074 </i>
    <i name="e_0_energy">  -1193.43464273 </i>
   </energy>
  </scstep>
  <scstep>
   <time name="diag">    0.72    0.72</time>
   <time name="diis">    2.96    2.97</time>
   <time name="orth">    0.13    0.13</time>
   <time name="total">    5.13    5.15</time>
   <energy>
    <i name="e_fr_energy">  -1193.51527536 </i>
    <i name="e_wo_entrp">  -1193.49054559 </i>
    <i name="e_0_energy">  -1193.50291048 </i>
   </energy>
  </scstep>
  <scstep>
   <time name="diag">    0.72    0.72</time>
   <time name="diis">    2.88    2.88</time>
   <time name="orth">    0.13    0.13</time>
   <time name="total">    4.77    4.77</time>
   <energy>
    <i name="alphaZ">   2397.92104513 </i>
    <i name="ewald"> 136380.32841298 </i>
    <i name="hartreedc">-219293.68618399 </i>
    <i name="XCdc">   3567.46227485 </i>
    <i name="pawpsdc">  86655.03349818 </i>
    <i name="pawaedc"> -85853.61208143 </i>
    <i name="eentropy">     -0.02574366 </i>
    <i name="bandstr"> -12823.76622348 </i>
    <i name="atom">  87776.77885653 </i>
    <i name="e_fr_energy">  -1193.56614488 </i>
    <i name="e_wo_entrp">  -1193.54040122 </i>
    <i name="e_0_energy">  -1193.55327305 </i>
   </energy>
  </scstep>
  <structure>
   <crystal>
    <varray name="basis" >
     <v>      15.46430000       0.00000000       0.00000000 </v>
     <v>      -7.73215000      13.39247665       0.00000000 </v>
     <v>       0.00000000       0.00000000      21.04820000 </v>
    </varray>
    <i name="volume">   4359.19328417 </i>
    <varray name="rec_basis" >
     <v>       0.06466507       0.03733439       0.00000000 </v>
     <v>       0.00000000       0.07466879       0.00000000 </v>
     <v>       0.00000000       0.00000000       0.04751000 </v>
    </varray>
   </crystal>
   <varray name="positions" >
    <v>       0.00091000       0.99975000       0.35854000 </v>
    <v>       0.16667000       0.08333000       0.20781000 </v>
    <v>       0.24517000       0.99517000       0.35738000 </v>
    <v>       0.41667000       0.08333000       0.20781000 </v>
    <v>       0.49705000       0.00169000       0.36006000 </v>
    <v>       0.66667000       0.08333000       0.20781000 </v>
    <v>       0.75659000       0.00320000       0.35806000 </v>
    <v>       0.91667000       0.08333000       0.20781000 </v>
    <v>       0.99923000       0.24978000       0.35837000 </v>
    <v>       0.16667000       0.33333000       0.20781000 </v>
    <v>       0.24733000       0.25134000       0.36064000 </v>
    <v>       0.41667000       0.33333000       0.20781000 </v>
    <v>       0.50295000       0.24840000       0.36204000 </v>
    <v>       0.66667000       0.33333000       0.20781000 </v>
    <v>       0.75101000       0.24968000       0.35809000 </v>
    <v>       0.91667000       0.33333000       0.20781000 </v>
    <v>       0.00103000       0.49979000       0.35853000 </v>
    <v>       0.16667000       0.58333000       0.20781000 </v>
    <v>       0.24493000       0.49460000       0.35728000 </v>
    <v>       0.41667000       0.58333000       0.20781000 </v>
    <v>       0.49687000       0.50186000       0.35988000 </v>
    <v>       0.66667000       0.58333000       0.20781000 </v>
    <v>       0.75701000       0.50333000       0.35797000 </v>
    <v>       0.91667000       0.58333000       0.20781000 </v>
    <v>       0.99919000       0.74994000       0.35832000 </v>
    <v>       0.16667000       0.83333000       0.20781000 </v>
    <v>       0.24701000       0.75158000       0.36037000 </v>
    <v>       0.41667000       0.83333000       0.20781000 </v>
    <v>       0.50311000       0.74875000       0.36208000 </v>
    <v>       0.66667000       0.83333000       0.20781000 </v>
    <v>       0.75090000       0.74973000       0.35813000 </v>
    <v>       0.91667000       0.83333000       0.20781000 </v>
    <v>       0.57959000       0.91854000       0.50140000 </v>
    <v>       0.32998000       0.67086000       0.50177000 </v>
    <v>       0.57831000       0.42146000       0.50220000 </v>
    <v>       0.33332000       0.16933000       0.50096000 </v>
    <v>       0.08333000       0.16667000       0.17032000 </v>
    <v>       0.16689000       0.08376000       0.32028000 </v>
    <v>       0.08317000       0.16681000       0.39582000 </v>
    <v>       0.00000000       0.00000000       0.24530000 </v>
    <v>       0.16667000       0.08333000       0.09533000 </v>
    <v>       0.20923000       0.06896000       0.50369000 </v>
    <v>       0.33333000       0.16667000       0.17032000 </v>
    <v>       0.41701000       0.08682000       0.32116000 </v>
    <v>       0.32499000       0.15778000       0.39892000 </v>
    <v>       0.25000000       0.00000000       0.24530000 </v>
    <v>       0.41667000       0.08333000       0.09533000 </v>
    <v>       0.58333000       0.16667000       0.17032000 </v>
    <v>       0.66725000       0.08225000       0.32016000 </v>
    <v>       0.58591000       0.16578000       0.39351000 </v>
    <v>       0.50000000       0.00000000       0.24530000 </v>
    <v>       0.66667000       0.08333000       0.09533000 </v>
    <v>       0.67875000       0.04287000       0.50554000 </v>
    <v>       0.83333000       0.16667000       0.17032000 </v>
    <v>       0.91831000       0.08407000       0.31961000 </v>
    <v>       0.83578000       0.16791000       0.39472000 </v>
    <v>       0.75000000       0.00000000       0.24530000 </v>
    <v>       0.91667000       0.08333000       0.09533000 </v>
    <v>       0.08333000       0.41667000       0.17032000 </v>
    <v>       0.16285000       0.33056000       0.31920000 </v>
    <v>       0.08110000       0.41433000       0.39479000 </v>
    <v>       0.00000000       0.25000000       0.24530000 </v>
    <v>       0.16667000       0.33333000       0.09533000 </v>
    <v>       0.33333000       0.41667000       0.17032000 </v>
    <v>       0.42027000       0.33246000       0.32494000 </v>
    <v>       0.32743000       0.41704000       0.38879000 </v>
    <v>       0.25000000       0.25000000       0.24530000 </v>
    <v>       0.41667000       0.33333000       0.09533000 </v>
    <v>       0.47610000       0.27461000       0.47158000 </v>
    <v>       0.58333000       0.41667000       0.17032000 </v>
    <v>       0.66649000       0.33525000       0.32182000 </v>
    <v>       0.59483000       0.42741000       0.40172000 </v>
    <v>       0.50000000       0.25000000       0.24530000 </v>
    <v>       0.66667000       0.33333000       0.09533000 </v>
    <v>       0.83333000       0.41667000       0.17032000 </v>
    <v>       0.91616000       0.33290000       0.31951000 </v>
    <v>       0.83760000       0.41856000       0.39430000 </v>
    <v>       0.75000000       0.25000000       0.24530000 </v>
    <v>       0.91667000       0.33333000       0.09533000 </v>
    <v>       0.08333000       0.66667000       0.17032000 </v>
    <v>       0.16717000       0.58384000       0.32030000 </v>
    <v>       0.08288000       0.66675000       0.39579000 </v>
    <v>       0.00000000       0.50000000       0.24530000 </v>
    <v>       0.16667000       0.58333000       0.09533000 </v>
    <v>       0.20575000       0.57219000       0.50785000 </v>
    <v>       0.33333000       0.66667000       0.17032000 </v>
    <v>       0.41635000       0.58690000       0.32140000 </v>
    <v>       0.32333000       0.65643000       0.40090000 </v>
    <v>       0.25000000       0.50000000       0.24530000 </v>
    <v>       0.41667000       0.58333000       0.09533000 </v>
    <v>       0.58333000       0.66667000       0.17032000 </v>
    <v>       0.66699000       0.58173000       0.32029000 </v>
    <v>       0.58541000       0.66550000       0.39346000 </v>
    <v>       0.50000000       0.50000000       0.24530000 </v>
    <v>       0.66667000       0.58333000       0.09533000 </v>
    <v>       0.67520000       0.54612000       0.50952000 </v>
    <v>       0.83333000       0.66667000       0.17032000 </v>
    <v>       0.91835000       0.58411000       0.31962000 </v>
    <v>       0.83545000       0.66771000       0.39488000 </v>
    <v>       0.75000000       0.50000000       0.24530000 </v>
    <v>       0.91667000       0.58333000       0.09533000 </v>
    <v>       0.08333000       0.91667000       0.17032000 </v>
    <v>       0.16288000       0.83070000       0.31919000 </v>
    <v>       0.08084000       0.91411000       0.39451000 </v>
    <v>       0.00000000       0.75000000       0.24530000 </v>
    <v>       0.16667000       0.83333000       0.09533000 </v>
    <v>       0.33333000       0.91667000       0.17032000 </v>
    <v>       0.41918000       0.83126000       0.32496000 </v>
    <v>       0.32792000       0.91746000       0.38854000 </v>
    <v>       0.25000000       0.75000000       0.24530000 </v>
    <v>       0.41667000       0.83333000       0.09533000 </v>
    <v>       0.47573000       0.77475000       0.47149000 </v>
    <v>       0.58333000       0.91667000       0.17032000 </v>
    <v>       0.66673000       0.83482000       0.32171000 </v>
    <v>       0.59388000       0.92605000       0.39983000 </v>
    <v>       0.50000000       0.75000000       0.24530000 </v>
    <v>       0.66667000       0.83333000       0.09533000 </v>
    <v>       0.83333000       0.91667000       0.17032000 </v>
    <v>       0.91590000       0.83265000       0.31948000 </v>
    <v>       0.83757000       0.91845000       0.39429000 </v>
    <v>       0.75000000       0.75000000       0.24530000 </v>
    <v>       0.91667000       0.83333000       0.09533000 </v>
    <v>       0.48571000       0.45179000       0.47583000 </v>
    <v>       0.29760000       0.76277000       0.47702000 </v>
    <v>       0.48738000       0.95074000       0.47709000 </v>
    <v>       0.53345000       0.38379000       0.57900000 </v>
    <v>       0.36614000       0.71298000       0.57922000 </v>
    <v>       0.54056000       0.88522000       0.57961000 </v>
    <v>       0.65773000       0.37041000       0.49314000 </v>
    <v>       0.38270000       0.59325000       0.49106000 </v>
    <v>       0.65717000       0.86563000       0.49029000 </v>
    <v>       0.29950000       0.26118000       0.47866000 </v>
    <v>       0.36536000       0.20475000       0.57981000 </v>
    <v>       0.38730000       0.09321000       0.48767000 </v>
    <v>       0.61857000       0.39899000       0.74396000 </v>
    <v>       0.76885000       0.31913000       0.67741000 </v>
    <v>       0.91724000       0.54832000       0.74396000 </v>
    <v>       0.06658000       0.62299000       0.74396000 </v>
    <v>       0.31808000       0.64770000       0.74991000 </v>
    <v>       0.41816000       0.55574000       0.69015000 </v>
    <v>       0.79924000       0.81594000       0.73728000 </v>
    <v>       0.45788000       0.47226000       0.61851000 </v>
    <v>       0.40447000       0.26561000       0.65931000 </v>
    <v>       0.19622000       0.42436000       0.65152000 </v>
    <v>       0.71684000       0.70508000       0.69015000 </v>
    <v>       0.57918000       0.08502000       0.52292000 </v>
    <v>       0.30050000       0.71362000       0.65931000 </v>
    <v>       0.88746000       0.24043000       0.54659000 </v>
    <v>       0.11194000       0.14567000       0.74396000 </v>
    <v>       0.26153000       0.11894000       0.65561000 </v>
    <v>       0.41062000       0.29501000       0.74396000 </v>
    <v>       0.24158000       0.94704000       0.65152000 </v>
    <v>       0.08833000       0.69734000       0.61660000 </v>
    <v>       0.58048000       0.84072000       0.80643000 </v>
    <v>       0.59569000       0.42955000       0.77493000 </v>
    <v>       0.69108000       0.43807000       0.74665000 </v>
    <v>       0.74597000       0.34970000       0.70838000 </v>
    <v>       0.84136000       0.35822000       0.68010000 </v>
    <v>       0.89437000       0.57889000       0.77493000 </v>
    <v>       0.98976000       0.58741000       0.74665000 </v>
    <v>       0.04371000       0.65356000       0.77493000 </v>
    <v>       0.13910000       0.66208000       0.74665000 </v>
    <v>       0.29521000       0.67827000       0.78088000 </v>
    <v>       0.39060000       0.68678000       0.75260000 </v>
    <v>       0.39528000       0.58631000       0.72112000 </v>
    <v>       0.49067000       0.59483000       0.69284000 </v>
    <v>       0.77636000       0.84651000       0.76825000 </v>
    <v>       0.87175000       0.85502000       0.73997000 </v>
    <v>       0.43500000       0.50282000       0.64948000 </v>
    <v>       0.53039000       0.51134000       0.62119000 </v>
    <v>       0.38160000       0.29618000       0.69028000 </v>
    <v>       0.47698000       0.30470000       0.66200000 </v>
    <v>       0.17334000       0.45493000       0.68249000 </v>
    <v>       0.26873000       0.46345000       0.65421000 </v>
    <v>       0.69396000       0.73565000       0.72112000 </v>
    <v>       0.78935000       0.74416000       0.69284000 </v>
    <v>       0.55631000       0.11559000       0.55389000 </v>
    <v>       0.65170000       0.12411000       0.52561000 </v>
    <v>       0.27762000       0.74419000       0.69028000 </v>
    <v>       0.37301000       0.75271000       0.66200000 </v>
    <v>       0.86459000       0.27100000       0.57755000 </v>
    <v>       0.95998000       0.27952000       0.54927000 </v>
    <v>       0.08907000       0.17624000       0.77493000 </v>
    <v>       0.18446000       0.18476000       0.74665000 </v>
    <v>       0.23865000       0.14951000       0.68658000 </v>
    <v>       0.33404000       0.15803000       0.65830000 </v>
    <v>       0.38774000       0.32558000       0.77493000 </v>
    <v>       0.48313000       0.33409000       0.74665000 </v>
    <v>       0.21870000       0.97761000       0.68249000 </v>
    <v>       0.31409000       0.98613000       0.65421000 </v>
    <v>       0.06546000       0.72791000       0.64757000 </v>
    <v>       0.16085000       0.73642000       0.61928000 </v>
    <v>       0.55760000       0.87129000       0.83740000 </v>
    <v>       0.65299000       0.87981000       0.80912000 </v>
   </varray>
  </structure>
  <varray name="forces" >
   <v>       0.04260974       0.04896804      -0.03651645 </v>
   <v>      -0.04479420       0.09692978       0.04889452 </v>
   <v>       0.00987005       0.14885682       0.08232483 </v>
   <v>       0.02563189       0.18823019       0.16038792 </v>
   <v>      -0.02880553       0.09199504       0.00182082 </v>
   <v>      -0.00518941      -0.05563461       0.15794882 </v>
   <v>      -0.02032905       0.02819684       0.00610893 </v>
   <v>       0.03442104       0.05828036      -0.16808839 </v>
   <v>      -0.03513780      -0.03413704      -0.01990202 </v>
   <v>       0.00641760      -0.12949107      -0.11411288 </v>
   <v>       0.13816636      -0.05233120       0.10388153 </v>
   <v>       0.10267277      -0.08779558       0.36910337 </v>
   <v>      -0.06028968      -0.07486359       0.10721627 </v>
   <v>      -0.15170851      -0.05239119       0.16209278 </v>
   <v>      -0.03292367      -0.02828416      -0.01677374 </v>
   <v>       0.04340175      -0.01872503       0.04431714 </v>
   <v>       0.00465564       0.02077983       0.01172816 </v>
   <v>      -0.02117907       0.08783087       0.03250262 </v>
   <v>       0.03729845      -0.00695953       0.02278501 </v>
   <v>      -0.00469517       0.16628441       0.11541577 </v>
   <v>      -0.03963335      -0.04528260       0.01408459 </v>
   <v>      -0.03839513      -0.07898573       0.10582565 </v>
   <v>      -0.01918273      -0.05640498      -0.01862263 </v>
   <v>       0.06901063       0.03119196      -0.17557074 </v>
   <v>       0.06810612       0.02353679      -0.00047456 </v>
   <v>      -0.01206627      -0.11138792      -0.17302850 </v>
   <v>      -0.00149328       0.02642960       0.05192013 </v>
   <v>       0.12720881      -0.09733151       0.32665019 </v>
   <v>      -0.03855350       0.03667963       0.16750115 </v>
   <v>      -0.15568277      -0.02245703       0.11213990 </v>
   <v>      -0.05163308      -0.00197539      -0.03805685 </v>
   <v>       0.04108111       0.03296048      -0.01462108 </v>
   <v>       0.46645611      -2.42408657      -1.03268520 </v>
   <v>      -0.08554722      -0.19579890      -0.99231821 </v>
   <v>      -0.18433044      -0.31988855      -0.91695851 </v>
   <v>      -0.76856571       0.04832826      -1.08811955 </v>
   <v>      -0.01138838      -0.02061151      -0.22067569 </v>
   <v>      -0.03666527      -0.01680579      -0.06950525 </v>
   <v>      -0.05358100      -0.00563871      -0.01339488 </v>
   <v>       0.03402437      -0.02585479       0.27819340 </v>
   <v>      -0.00295190       0.00105084       0.01961478 </v>
   <v>      -0.09483852      -0.02603450       0.22994692 </v>
   <v>       0.00074033       0.02062726      -0.22419728 </v>
   <v>       0.01085425      -0.02953001      -0.07032624 </v>
   <v>       0.04500637      -0.03960478      -0.60589731 </v>
   <v>       0.00872995      -0.10363325       0.25043835 </v>
   <v>       0.00228457       0.00164419       0.03089587 </v>
   <v>      -0.00012305       0.01378288      -0.22355469 </v>
   <v>      -0.01115291      -0.02427004      -0.04194182 </v>
   <v>       0.01548605       0.09847171      -0.22687783 </v>
   <v>      -0.15312041      -0.12333014       0.37036406 </v>
   <v>       0.00464267      -0.00562264       0.02251014 </v>
   <v>       2.60983593      -1.40364926      -0.99277346 </v>
   <v>      -0.00097057      -0.02130743      -0.21174177 </v>
   <v>      -0.00258462      -0.00640081      -0.04589617 </v>
   <v>      -0.02463398      -0.06788621      -0.14724579 </v>
   <v>       0.15775718      -0.00258531       0.27679671 </v>
   <v>       0.00166329       0.00265849       0.02779314 </v>
   <v>       0.00921757       0.03122733      -0.20776559 </v>
   <v>      -0.02872105       0.01044557      -0.05460744 </v>
   <v>       0.00943714      -0.00815386      -0.00126993 </v>
   <v>      -0.08482900      -0.04686767       0.18653152 </v>
   <v>      -0.00652344       0.00750945      -0.05145716 </v>
   <v>       0.04096579       0.02327808      -0.19728602 </v>
   <v>       0.00819155       0.04124670      -0.06817844 </v>
   <v>      -0.01237387       0.04304226      -0.04087880 </v>
   <v>       0.12678653       0.14329800       0.32802838 </v>
   <v>      -0.00210017       0.00244214       0.07545269 </v>
   <v>       0.19526260       0.21815414      -0.02248505 </v>
   <v>      -0.01696834      -0.00127419      -0.21893197 </v>
   <v>       0.01514706       0.04579101      -0.04506409 </v>
   <v>       0.03171997       0.05044527       0.00496138 </v>
   <v>       0.05153544       0.06985259       0.11685792 </v>
   <v>       0.00333861       0.00175952       0.02369207 </v>
   <v>      -0.04097984       0.01080627      -0.20814591 </v>
   <v>       0.00784132       0.00819617      -0.03797072 </v>
   <v>      -0.01858672       0.02142317      -0.02657269 </v>
   <v>      -0.10256970       0.01564991       0.36214815 </v>
   <v>       0.00236541       0.00179512      -0.08792559 </v>
   <v>      -0.01159288      -0.00111508      -0.22992822 </v>
   <v>       0.00959077       0.00993178      -0.02742843 </v>
   <v>      -0.00496133      -0.00467829      -0.07567310 </v>
   <v>       0.04108905       0.01243783       0.29397601 </v>
   <v>       0.00253030      -0.00230903       0.01022500 </v>
   <v>      -0.08534457      -0.08800772       0.13338822 </v>
   <v>       0.00522811       0.01521550      -0.22104719 </v>
   <v>      -0.01000796       0.01350380      -0.05060423 </v>
   <v>       0.03111712       0.01328076       0.08969309 </v>
   <v>       0.01633582      -0.09773872       0.26924715 </v>
   <v>      -0.00320849      -0.00206010       0.03626709 </v>
   <v>       0.00857228       0.01002201      -0.21999650 </v>
   <v>       0.00442068      -0.00039641      -0.04138790 </v>
   <v>       0.03010304      -0.00635767      -0.02261980 </v>
   <v>      -0.17286985      -0.05806471       0.35755835 </v>
   <v>      -0.00268107      -0.00412070       0.06413005 </v>
   <v>       0.03254834       0.22077851       0.05480238 </v>
   <v>      -0.00820333      -0.00726994      -0.21882563 </v>
   <v>      -0.01613725       0.00617704      -0.04935020 </v>
   <v>      -0.00290019       0.00526123      -0.00856324 </v>
   <v>       0.15483079       0.03925495       0.27193055 </v>
   <v>       0.00712902      -0.00433734       0.01758094 </v>
   <v>       0.00448464       0.00307568      -0.21320988 </v>
   <v>      -0.01276036      -0.01627763      -0.06331881 </v>
   <v>      -0.03715923      -0.02336933      -0.04080989 </v>
   <v>      -0.09783033      -0.04226374       0.17747449 </v>
   <v>      -0.00081045      -0.01079132       0.02524048 </v>
   <v>       0.02127393      -0.00201888      -0.20520620 </v>
   <v>       0.00880317      -0.00662750      -0.04451820 </v>
   <v>       0.03191549      -0.02030431      -0.01935795 </v>
   <v>       0.09960320       0.14507730       0.31665395 </v>
   <v>       0.00791080      -0.00678686       0.06172713 </v>
   <v>       0.08035248       0.05850888      -0.01613131 </v>
   <v>      -0.01207083      -0.02191779      -0.22042424 </v>
   <v>       0.00211840      -0.00778423      -0.04049256 </v>
   <v>      -0.01364280       0.05319009       0.02512929 </v>
   <v>       0.06906441       0.06284764       0.14836177 </v>
   <v>       0.00032199       0.00161405       0.04820393 </v>
   <v>      -0.02458262      -0.01637244      -0.21421975 </v>
   <v>      -0.00967827      -0.01676235      -0.03995852 </v>
   <v>       0.02135193      -0.01561474      -0.02162934 </v>
   <v>      -0.09034183      -0.01563198       0.36798606 </v>
   <v>      -0.00139209      -0.00080909      -0.00295058 </v>
   <v>       0.09528719      -0.04504040       0.07875170 </v>
   <v>       0.01639112       0.10301528       0.04458557 </v>
   <v>       0.24029786      -1.14805599      -0.63927610 </v>
   <v>       0.67268305      -0.21556924      -0.10120318 </v>
   <v>       1.31777230       0.13363580      -1.93915504 </v>
   <v>      -0.11083376       0.15387428       0.37044469 </v>
   <v>       0.20034237      -0.03961596       0.01219535 </v>
   <v>       0.06037697      -0.11273231       0.03518413 </v>
   <v>       0.39521203      -0.03487695      -0.08528356 </v>
   <v>       0.05826472      -0.03270329      -0.04930127 </v>
   <v>       0.63055998      -1.08352055      -3.13727170 </v>
   <v>       0.22923731      -0.05103233       0.06197505 </v>
   <v>      -0.26150313      -0.10454827       0.02172731 </v>
   <v>       0.14643874      -0.20446509      -0.17209740 </v>
   <v>      -6.14068850      -2.98499738       0.36931603 </v>
   <v>       8.94467461       5.73550681       0.72160733 </v>
   <v>       0.86859954      -0.81385871       1.61640741 </v>
   <v>      -0.89027020       2.06774071       2.29113240 </v>
   <v>       2.60674879       8.73395014       5.78689091 </v>
   <v>       1.47000846      -0.63011003      -1.16550266 </v>
   <v>       2.92288482       0.21694856      -5.34717572 </v>
   <v>       0.10028011      -0.15394201       0.09096660 </v>
   <v>      -2.18290442      -6.88785367      -4.19893657 </v>
   <v>      -2.28812588       3.94146115       2.28110366 </v>
   <v>      -1.50301979       0.79502118       0.14609350 </v>
   <v>       0.10379584       0.02062260      -0.08976909 </v>
   <v>       0.19599479      -0.13502776      -0.06761332 </v>
   <v>      -1.94145227      -2.32232214       0.80543972 </v>
   <v>      -0.76841154       1.59423338       9.47380962 </v>
   <v>       0.74071460      -1.21997944       0.13829339 </v>
   <v>       0.13891713      -0.07471701      -0.05900754 </v>
   <v>       0.15896545      -0.18457548      -0.25811899 </v>
   <v>       0.27613952       0.47788507       0.35079905 </v>
   <v>       0.03028156       0.08404877      -0.15165630 </v>
   <v>       0.14218479       0.00476846      -0.01048175 </v>
   <v>      -0.17029995       0.16156037       0.12689326 </v>
   <v>      -0.56732266      -0.32931460       0.11000111 </v>
   <v>      -3.88997069      -4.50210984      -1.81387835 </v>
   <v>       0.92698100       1.89031458       1.30062032 </v>
   <v>       0.48929935      -0.08218496      -0.39470446 </v>
   <v>       0.18246868      -0.12721071       0.47676176 </v>
   <v>      -0.14675720       0.47669971       0.33708079 </v>
   <v>      -0.65721171      -0.37544867       0.21826867 </v>
   <v>       0.01611650       0.34956482       0.08773727 </v>
   <v>       0.11627550       0.68288747       0.53192567 </v>
   <v>       0.19655092       0.83625106       0.46642724 </v>
   <v>      -0.29078075      -1.07921862      -0.79239023 </v>
   <v>       0.01734001      -0.09318233      -0.29838062 </v>
   <v>      -1.29351059       0.92695174      -1.06537015 </v>
   <v>       0.07879100       0.25037711      -0.98012529 </v>
   <v>      -0.06768476       0.13274659      -0.00146728 </v>
   <v>      -0.09680733      -0.00416529      -0.18046924 </v>
   <v>       0.50455119      -1.42934408      -1.46606555 </v>
   <v>      -1.32079148      -1.92272909      -0.97226978 </v>
   <v>      -0.78001832       0.11529118      -0.08443517 </v>
   <v>      -0.54786542       0.60858080       0.11121498 </v>
   <v>      -0.38243050       0.28257158       0.02517654 </v>
   <v>      -0.23506539       0.02352386      -0.04951022 </v>
   <v>      -0.13164420       0.07129819       0.09524845 </v>
   <v>      -0.01928473       0.00262162       0.02681006 </v>
   <v>      -0.09413023       0.11267723       0.07467502 </v>
   <v>      -0.26640081       0.05622219       0.25205871 </v>
   <v>      -0.24719754      -0.03083258      -0.30075905 </v>
   <v>       0.31402417       0.24493616       0.43298700 </v>
   <v>      -0.31457786       0.30516215       1.22128032 </v>
   <v>       0.44772418      -0.14397694      -0.05518762 </v>
   <v>      -0.10457953       0.43636690      -0.24124090 </v>
   <v>      -0.18192137      -0.04976968      -0.07961049 </v>
   <v>      -0.03244227       0.08132830      -0.08719732 </v>
   <v>      -0.07235848       0.12474249      -0.24595441 </v>
   <v>      -0.02291134       0.06146724       0.17631367 </v>
   <v>      -0.25321916       0.07191294       0.08188159 </v>
  </varray>
  <varray name="stress" >
   <v>      -6.31175186       1.82518954      -2.89988657 </v>
   <v>       1.82518091      -2.10829677       7.97370562 </v>
   <v>      -2.89987429       7.97370864      14.39644544 </v>
  </varray>
  <energy>
   <i name="e_fr_energy">  -1214.54271440 </i>
   <i name="e_wo_entrp">  -1214.51697074 </i>
   <i name="e_0_energy">  -1214.52984257 </i>
   <i name="kinetic">     55.39846978 </i>
   <i name="lattice kinetic">      0.00000000 </i>
   <i name="nosepot">      0.00000000 </i>
   <i name="nosekinetic">      0.00000000 </i>
   <i name="total">  -1159.14424462 </i>
  </energy>
  <dos>
   <i name="efermi">     -1.19683660 </i>
   <total>
    <array>
     <dimension dim="1">gridpoints</dimension>
     <dimension dim="2">spin</dimension>
     <field>energy</field>
     <field>total</field>
     <field>integrated</field>
     <set>
      <set comment="spin 1">
       <r>   -37.1857     0.0000     0.0000 </r>
       <r>   -37.0515     0.0000     0.0000 </r>
       <r>   -36.9174     0.0000     0.0000 </r>
       <r>   -36.7832     0.0000     0.0000 </r>
       <r>   -36.6491     0.0000     0.0000 </r>
       <r>   -36.5149     0.0000     0.0000 </r>
       <r>   -36.3808     0.0000     0.0000 </r>
       <r>   -36.2466     0.0000     0.0000 </r>
       <r>   -36.1125     0.0000     0.0000 </r>
       <r>   -35.9783     0.0000     0.0000 </r>
       <r>   -35.8442     0.0000     0.0000 </r>
       <r>   -35.7100     0.0000     0.0000 </r>
       <r>   -35.5759     0.0000     0.0000 </r>
       <r>   -35.4417     0.0616     0.0083 </r>
       <r>   -35.3076    23.2446     3.1265 </r>
       <r>   -35.1734   111.1520    18.0374 </r>
       <r>   -35.0393   102.5385    31.7928 </r>
       <r>   -34.9051     1.5445    32.0000 </r>
       <r>   -34.7710     0.0000    32.0000 </r>
       <r>   -34.6368     0.0000    32.0000 </r>
       <r>   -34.5027     0.0000    32.0000 </r>
       <r>   -34.3685     0.0000    32.0000 </r>
       <r>   -34.2344     0.0000    32.0000 </r>
       <r>   -34.1002     0.0000    32.0000 </r>
       <r>   -33.9661     0.0000    32.0000 </r>
       <r>   -33.8319     0.0000    32.0000 </r>
       <r>   -33.6978     0.0000    32.0000 </r>
       <r>   -33.5636     0.0000    32.0000 </r>
       <r>   -33.4295     0.0000    32.0000 </r>
       <r>   -33.2953     0.0000    32.0000 </r>
       <r>   -33.1612     0.0000    32.0000 </r>
       <r>   -33.0270     0.0000    32.0000 </r>
       <r>   -32.8929     0.0000    32.0000 </r>
       <r>   -32.7587     0.0000    32.0000 </r>
       <r>   -32.6246     0.0000    32.0000 </r>
       <r>   -32.4905     0.0000    32.0000 </r>
       <r>   -32.3563     0.0000    32.0000 </r>
       <r>   -32.2222     0.0000    32.0000 </r>
       <r>   -32.0880     0.0000    32.0000 </r>
       <r>   -31.9539     0.0000    32.0000 </r>
       <r>   -31.8197     0.0000    32.0000 </r>
       <r>   -31.6856     0.0000    32.0000 </r>
       <r>   -31.5514     0.0000    32.0000 </r>
       <r>   -31.4173     0.0000    32.0000 </r>
       <r>   -31.2831     0.0000    32.0000 </r>
       <r>   -31.1490     0.0000    32.0000 </r>
       <r>   -31.0148     0.0000    32.0000 </r>
       <r>   -30.8807     0.0000    32.0000 </r>
       <r>   -30.7465     0.0000    32.0000 </r>
       <r>   -30.6124     0.0000    32.0000 </r>
       <r>   -30.4782     0.0000    32.0000 </r>
       <r>   -30.3441     0.0000    32.0000 </r>
       <r>   -30.2099     0.0000    32.0000 </r>
       <r>   -30.0758     0.0000    32.0000 </r>
       <r>   -29.9416     0.0000    32.0000 </r>
       <r>   -29.8075     0.0000    32.0000 </r>
       <r>   -29.6733     0.0000    32.0000 </r>
       <r>   -29.5392     0.0000    32.0000 </r>
       <r>   -29.4050     0.0000    32.0000 </r>
       <r>   -29.2709     0.0000    32.0000 </r>
       <r>   -29.1367     0.0000    32.0000 </r>
       <r>   -29.0026     0.0000    32.0000 </r>
       <r>   -28.8684     0.0000    32.0000 </r>
       <r>   -28.7343     0.0000    32.0000 </r>
       <r>   -28.6001     0.0000    32.0000 </r>
       <r>   -28.4660     0.0000    32.0000 </r>
       <r>   -28.3318     0.0000    32.0000 </r>
       <r>   -28.1977     0.0000    32.0000 </r>
       <r>   -28.0635     0.0000    32.0000 </r>
       <r>   -27.9294     0.0000    32.0000 </r>
       <r>   -27.7952     0.0000    32.0000 </r>
       <r>   -27.6611     0.0000    32.0000 </r>
       <r>   -27.5269     0.0000    32.0000 </r>
       <r>   -27.3928     0.0000    32.0000 </r>
       <r>   -27.2586     0.0000    32.0000 </r>
       <r>   -27.1245     0.0000    32.0000 </r>
       <r>   -26.9904     0.0000    32.0000 </r>
       <r>   -26.8562     0.0000    32.0000 </r>
       <r>   -26.7221     0.0000    32.0000 </r>
       <r>   -26.5879     0.0000    32.0000 </r>
       <r>   -26.4538     0.0000    32.0000 </r>
       <r>   -26.3196     0.0000    32.0000 </r>
       <r>   -26.1855     0.0000    32.0000 </r>
       <r>   -26.0513     0.0000    32.0000 </r>
       <r>   -25.9172     0.0000    32.0000 </r>
       <r>   -25.7830     0.0000    32.0000 </r>
       <r>   -25.6489     0.0000    32.0000 </r>
       <r>   -25.5147     0.0000    32.0000 </r>
       <r>   -25.3806     0.0000    32.0000 </r>
       <r>   -25.2464     0.0000    32.0000 </r>
       <r>   -25.1123     0.0000    32.0000 </r>
       <r>   -24.9781     0.0000    32.0000 </r>
       <r>   -24.8440     0.0006    32.0001 </r>
       <r>   -24.7098     3.8393    32.5151 </r>
       <r>   -24.5757    10.6774    33.9475 </r>
       <r>   -24.4415     2.6051    34.2969 </r>
       <r>   -24.3074     5.2367    34.9994 </r>
       <r>   -24.1732     0.0041    35.0000 </r>
       <r>   -24.0391     0.0000    35.0000 </r>
       <r>   -23.9049     0.0000    35.0000 </r>
       <r>   -23.7708     0.0000    35.0000 </r>
       <r>   -23.6366     0.0000    35.0000 </r>
       <r>   -23.5025     0.0000    35.0000 </r>
       <r>   -23.3683     0.0008    35.0001 </r>
       <r>   -23.2342     4.0301    35.5407 </r>
       <r>   -23.1000     3.4231    36.0000 </r>
       <r>   -22.9659     0.0004    36.0000 </r>
       <r>   -22.8317     0.0016    36.0002 </r>
       <r>   -22.6976     6.0189    36.8076 </r>
       <r>   -22.5634     8.8764    37.9984 </r>
       <r>   -22.4293     0.0119    38.0000 </r>
       <r>   -22.2951     0.0000    38.0000 </r>
       <r>   -22.1610     0.0008    38.0001 </r>
       <r>   -22.0268     4.3741    38.5869 </r>
       <r>   -21.8927    11.2079    40.0904 </r>
       <r>   -21.7585     6.7416    40.9948 </r>
       <r>   -21.6244     0.3334    41.0395 </r>
       <r>   -21.4903    19.1027    43.6021 </r>
       <r>   -21.3561     2.9658    44.0000 </r>
       <r>   -21.2220     0.0001    44.0000 </r>
       <r>   -21.0878     0.0000    44.0000 </r>
       <r>   -20.9537     0.0000    44.0000 </r>
       <r>   -20.8195     1.6565    44.2222 </r>
       <r>   -20.6854    12.5322    45.9034 </r>
       <r>   -20.5512    12.2239    47.5432 </r>
       <r>   -20.4171    38.5166    52.7102 </r>
       <r>   -20.2829    34.3882    57.3233 </r>
       <r>   -20.1488    78.9159    67.9098 </r>
       <r>   -20.0146    76.9571    78.2335 </r>
       <r>   -19.8805    36.2132    83.0914 </r>
       <r>   -19.7463    28.8845    86.9662 </r>
       <r>   -19.6122    71.8334    96.6026 </r>
       <r>   -19.4780    52.0836   103.5895 </r>
       <r>   -19.3439    39.4851   108.8864 </r>
       <r>   -19.2097    43.9233   114.7787 </r>
       <r>   -19.0756    19.5370   117.3995 </r>
       <r>   -18.9414    39.2150   122.6602 </r>
       <r>   -18.8073    41.3557   128.2080 </r>
       <r>   -18.6731    23.5866   131.3721 </r>
       <r>   -18.5390    19.1515   133.9413 </r>
       <r>   -18.4048    10.6278   135.3670 </r>
       <r>   -18.2707    14.6854   137.3370 </r>
       <r>   -18.1365    12.0086   138.9479 </r>
       <r>   -18.0024    15.1733   140.9834 </r>
       <r>   -17.8682     9.1832   142.2153 </r>
       <r>   -17.7341    51.3054   149.0979 </r>
       <r>   -17.5999    97.1280   162.1275 </r>
       <r>   -17.4658    87.1927   173.8243 </r>
       <r>   -17.3316    30.9779   177.9799 </r>
       <r>   -17.1975    48.0057   184.4198 </r>
       <r>   -17.0633    48.1920   190.8847 </r>
       <r>   -16.9292     9.3918   192.1446 </r>
       <r>   -16.7950    10.6671   193.5756 </r>
       <r>   -16.6609    10.0464   194.9233 </r>
       <r>   -16.5267     8.4427   196.0559 </r>
       <r>   -16.3926     9.2937   197.3026 </r>
       <r>   -16.2584    18.5006   199.7845 </r>
       <r>   -16.1243    36.9345   204.7392 </r>
       <r>   -15.9902    21.8801   207.6743 </r>
       <r>   -15.8560    20.2951   210.3969 </r>
       <r>   -15.7219    28.4383   214.2119 </r>
       <r>   -15.5877    33.6541   218.7265 </r>
       <r>   -15.4536    16.9124   220.9953 </r>
       <r>   -15.3194     3.1903   221.4233 </r>
       <r>   -15.1853    46.8865   227.7130 </r>
       <r>   -15.0511    48.0244   234.1554 </r>
       <r>   -14.9170    19.8290   236.8155 </r>
       <r>   -14.7828    24.5571   240.1098 </r>
       <r>   -14.6487    20.8428   242.9058 </r>
       <r>   -14.5145     0.7231   243.0028 </r>
       <r>   -14.3804     7.9038   244.0631 </r>
       <r>   -14.2462    10.8465   245.5181 </r>
       <r>   -14.1121     3.5915   245.9999 </r>
       <r>   -13.9779     0.0005   246.0000 </r>
       <r>   -13.8438     0.0000   246.0000 </r>
       <r>   -13.7096     0.0000   246.0000 </r>
       <r>   -13.5755     0.0000   246.0000 </r>
       <r>   -13.4413     0.0000   246.0000 </r>
       <r>   -13.3072     0.0000   246.0000 </r>
       <r>   -13.1730     0.0000   246.0000 </r>
       <r>   -13.0389     0.0000   246.0000 </r>
       <r>   -12.9047     0.9265   246.1243 </r>
       <r>   -12.7706     6.4970   246.9959 </r>
       <r>   -12.6364     0.0309   247.0000 </r>
       <r>   -12.5023     0.0000   247.0000 </r>
       <r>   -12.3681     0.0000   247.0000 </r>
       <r>   -12.2340     0.0000   247.0000 </r>
       <r>   -12.0998     0.2218   247.0298 </r>
       <r>   -11.9657     7.0233   247.9719 </r>
       <r>   -11.8315     0.2102   248.0001 </r>
       <r>   -11.6974     4.1082   248.5512 </r>
       <r>   -11.5632     3.3675   249.0030 </r>
       <r>   -11.4291     6.3360   249.8530 </r>
       <r>   -11.2949     1.1129   250.0022 </r>
       <r>   -11.1608     6.1675   250.8296 </r>
       <r>   -11.0266     1.2702   251.0000 </r>
       <r>   -10.8925     0.0000   251.0000 </r>
       <r>   -10.7584     0.0000   251.0000 </r>
       <r>   -10.6242     0.0000   251.0000 </r>
       <r>   -10.4901     0.8864   251.1189 </r>
       <r>   -10.3559     9.6442   252.4127 </r>
       <r>   -10.2218     4.3770   252.9998 </r>
       <r>   -10.0876     0.0145   253.0018 </r>
       <r>    -9.9535     9.9292   254.3338 </r>
       <r>    -9.8193    10.7409   255.7747 </r>
       <r>    -9.6852     1.6837   256.0005 </r>
       <r>    -9.5510     5.5893   256.7503 </r>
       <r>    -9.4169     9.5334   258.0292 </r>
       <r>    -9.2827     7.1298   258.9857 </r>
       <r>    -9.1486     6.7131   259.8862 </r>
       <r>    -9.0144     8.4731   261.0229 </r>
       <r>    -8.8803     7.2269   261.9924 </r>
       <r>    -8.7461     0.0926   262.0048 </r>
       <r>    -8.6120     8.1117   263.0930 </r>
       <r>    -8.4778    15.2237   265.1352 </r>
       <r>    -8.3437    26.5634   268.6987 </r>
       <r>    -8.2095    37.2701   273.6984 </r>
       <r>    -8.0754    34.3077   278.3007 </r>
       <r>    -7.9412    16.4565   280.5084 </r>
       <r>    -7.8071    16.5253   282.7252 </r>
       <r>    -7.6729    10.1431   284.0859 </r>
       <r>    -7.5388    12.6441   285.7821 </r>
       <r>    -7.4046     8.7921   286.9615 </r>
       <r>    -7.2705     2.6953   287.3231 </r>
       <r>    -7.1363     5.0426   287.9996 </r>
       <r>    -7.0022     0.0117   288.0011 </r>
       <r>    -6.8680     5.7419   288.7714 </r>
       <r>    -6.7339     4.1422   289.3271 </r>
       <r>    -6.5997    12.4723   291.0002 </r>
       <r>    -6.4656     6.7480   291.9055 </r>
       <r>    -6.3314     7.4457   292.9043 </r>
       <r>    -6.1973     8.6096   294.0593 </r>
       <r>    -6.0631    14.0517   295.9443 </r>
       <r>    -5.9290     4.5636   296.5565 </r>
       <r>    -5.7948    25.0682   299.9194 </r>
       <r>    -5.6607     0.6029   300.0002 </r>
       <r>    -5.5265     8.2113   301.1018 </r>
       <r>    -5.3924    42.5230   306.8062 </r>
       <r>    -5.2583     9.2551   308.0477 </r>
       <r>    -5.1241    18.3497   310.5093 </r>
       <r>    -4.9900    67.4030   319.5514 </r>
       <r>    -4.8558   130.2045   337.0181 </r>
       <r>    -4.7217    88.6191   348.9063 </r>
       <r>    -4.5875    58.3892   356.7391 </r>
       <r>    -4.4534    54.0228   363.9862 </r>
       <r>    -4.3192   133.4320   381.8859 </r>
       <r>    -4.1851    99.1709   395.1896 </r>
       <r>    -4.0509    77.6103   405.6009 </r>
       <r>    -3.9168    91.2256   417.8387 </r>
       <r>    -3.7826    63.8437   426.4033 </r>
       <r>    -3.6485    72.4282   436.1194 </r>
       <r>    -3.5143    53.8659   443.3455 </r>
       <r>    -3.3802    78.9832   453.9410 </r>
       <r>    -3.2460    57.7556   461.6888 </r>
       <r>    -3.1119    63.2994   470.1803 </r>
       <r>    -2.9777   101.0557   483.7368 </r>
       <r>    -2.8436    73.0295   493.5336 </r>
       <r>    -2.7094    78.3829   504.0486 </r>
       <r>    -2.5753   133.4211   521.9469 </r>
       <r>    -2.4411   117.1225   537.6587 </r>
       <r>    -2.3070   118.6817   553.5797 </r>
       <r>    -2.1728    94.1314   566.2073 </r>
       <r>    -2.0387   100.2145   579.6510 </r>
       <r>    -1.9045    55.5326   587.1006 </r>
       <r>    -1.7704    54.2021   594.3718 </r>
       <r>    -1.6362    23.6183   597.5401 </r>
       <r>    -1.5021    10.5926   598.9611 </r>
       <r>    -1.3679     7.6672   599.9897 </r>
       <r>    -1.2338     0.0771   600.0000 </r>
       <r>    -1.0996     0.1989   600.0267 </r>
       <r>    -0.9655    13.0444   601.7766 </r>
       <r>    -0.8313     2.8227   602.1552 </r>
       <r>    -0.6972    12.7134   603.8607 </r>
       <r>    -0.5630    13.6601   605.6932 </r>
       <r>    -0.4289    19.6672   608.3315 </r>
       <r>    -0.2947    13.5031   610.1430 </r>
       <r>    -0.1606     9.7187   611.4467 </r>
       <r>    -0.0264     4.1236   611.9999 </r>
       <r>     0.1077     0.0009   612.0000 </r>
       <r>     0.2418     0.0000   612.0000 </r>
       <r>     0.3760     0.0000   612.0000 </r>
       <r>     0.5101     0.2778   612.0373 </r>
       <r>     0.6443    41.5024   617.6048 </r>
       <r>     0.7784   185.0700   642.4317 </r>
       <r>     0.9126   324.3780   685.9466 </r>
       <r>     1.0467   311.9636   727.7961 </r>
       <r>     1.1809   256.9413   762.2645 </r>
       <r>     1.3150    42.7112   767.9941 </r>
       <r>     1.4492     0.0437   768.0000 </r>
       <r>     1.5833     0.0000   768.0000 </r>
       <r>     1.7175     0.0000   768.0000 </r>
       <r>     1.8516     0.0000   768.0000 </r>
       <r>     1.9858     0.0000   768.0000 </r>
       <r>     2.1199     0.0000   768.0000 </r>
       <r>     2.2541     0.0000   768.0000 </r>
       <r>     2.3882     0.0000   768.0000 </r>
       <r>     2.5224     0.0000   768.0000 </r>
       <r>     2.6565     0.0000   768.0000 </r>
       <r>     2.7907     0.0000   768.0000 </r>
       <r>     2.9248     0.0000   768.0000 </r>
       <r>     3.0590     0.0000   768.0000 </r>
      </set>
      <set comment="spin 2">
       <r>   -37.1857     0.0000     0.0000 </r>
       <r>   -37.0515     0.0000     0.0000 </r>
       <r>   -36.9174     0.0000     0.0000 </r>
       <r>   -36.7832     0.0000     0.0000 </r>
       <r>   -36.6491     0.0000     0.0000 </r>
       <r>   -36.5149     0.0000     0.0000 </r>
       <r>   -36.3808     0.0000     0.0000 </r>
       <r>   -36.2466     0.0000     0.0000 </r>
       <r>   -36.1125     0.0000     0.0000 </r>
       <r>   -35.9783     0.0000     0.0000 </r>
       <r>   -35.8442     0.0000     0.0000 </r>
       <r>   -35.7100     0.0000     0.0000 </r>
       <r>   -35.5759     0.0000     0.0000 </r>
       <r>   -35.4417     0.0604     0.0081 </r>
       <r>   -35.3076    23.3113     3.1353 </r>
       <r>   -35.1734   128.1078    20.3208 </r>
       <r>   -35.0393    86.7404    31.9569 </r>
       <r>   -34.9051     0.3212    32.0000 </r>
       <r>   -34.7710     0.0000    32.0000 </r>
       <r>   -34.6368     0.0000    32.0000 </r>
       <r>   -34.5027     0.0000    32.0000 </r>
       <r>   -34.3685     0.0000    32.0000 </r>
       <r>   -34.2344     0.0000    32.0000 </r>
       <r>   -34.1002     0.0000    32.0000 </r>
       <r>   -33.9661     0.0000    32.0000 </r>
       <r>   -33.8319     0.0000    32.0000 </r>
       <r>   -33.6978     0.0000    32.0000 </r>
       <r>   -33.5636     0.0000    32.0000 </r>
       <r>   -33.4295     0.0000    32.0000 </r>
       <r>   -33.2953     0.0000    32.0000 </r>
       <r>   -33.1612     0.0000    32.0000 </r>
       <r>   -33.0270     0.0000    32.0000 </r>
       <r>   -32.8929     0.0000    32.0000 </r>
       <r>   -32.7587     0.0000    32.0000 </r>
       <r>   -32.6246     0.0000    32.0000 </r>
       <r>   -32.4905     0.0000    32.0000 </r>
       <r>   -32.3563     0.0000    32.0000 </r>
       <r>   -32.2222     0.0000    32.0000 </r>
       <r>   -32.0880     0.0000    32.0000 </r>
       <r>   -31.9539     0.0000    32.0000 </r>
       <r>   -31.8197     0.0000    32.0000 </r>
       <r>   -31.6856     0.0000    32.0000 </r>
       <r>   -31.5514     0.0000    32.0000 </r>
       <r>   -31.4173     0.0000    32.0000 </r>
       <r>   -31.2831     0.0000    32.0000 </r>
       <r>   -31.1490     0.0000    32.0000 </r>
       <r>   -31.0148     0.0000    32.0000 </r>
       <r>   -30.8807     0.0000    32.0000 </r>
       <r>   -30.7465     0.0000    32.0000 </r>
       <r>   -30.6124     0.0000    32.0000 </r>
       <r>   -30.4782     0.0000    32.0000 </r>
       <r>   -30.3441     0.0000    32.0000 </r>
       <r>   -30.2099     0.0000    32.0000 </r>
       <r>   -30.0758     0.0000    32.0000 </r>
       <r>   -29.9416     0.0000    32.0000 </r>
       <r>   -29.8075     0.0000    32.0000 </r>
       <r>   -29.6733     0.0000    32.0000 </r>
       <r>   -29.5392     0.0000    32.0000 </r>
       <r>   -29.4050     0.0000    32.0000 </r>
       <r>   -29.2709     0.0000    32.0000 </r>
       <r>   -29.1367     0.0000    32.0000 </r>
       <r>   -29.0026     0.0000    32.0000 </r>
       <r>   -28.8684     0.0000    32.0000 </r>
       <r>   -28.7343     0.0000    32.0000 </r>
       <r>   -28.6001     0.0000    32.0000 </r>
       <r>   -28.4660     0.0000    32.0000 </r>
       <r>   -28.3318     0.0000    32.0000 </r>
       <r>   -28.1977     0.0000    32.0000 </r>
       <r>   -28.0635     0.0000    32.0000 </r>
       <r>   -27.9294     0.0000    32.0000 </r>
       <r>   -27.7952     0.0000    32.0000 </r>
       <r>   -27.6611     0.0000    32.0000 </r>
       <r>   -27.5269     0.0000    32.0000 </r>
       <r>   -27.3928     0.0000    32.0000 </r>
       <r>   -27.2586     0.0000    32.0000 </r>
       <r>   -27.1245     0.0000    32.0000 </r>
       <r>   -26.9904     0.0000    32.0000 </r>
       <r>   -26.8562     0.0000    32.0000 </r>
       <r>   -26.7221     0.0000    32.0000 </r>
       <r>   -26.5879     0.0000    32.0000 </r>
       <r>   -26.4538     0.0000    32.0000 </r>
       <r>   -26.3196     0.0000    32.0000 </r>
       <r>   -26.1855     0.0000    32.0000 </r>
       <r>   -26.0513     0.0000    32.0000 </r>
       <r>   -25.9172     0.0000    32.0000 </r>
       <r>   -25.7830     0.0000    32.0000 </r>
       <r>   -25.6489     0.0000    32.0000 </r>
       <r>   -25.5147     0.0000    32.0000 </r>
       <r>   -25.3806     0.0000    32.0000 </r>
       <r>   -25.2464     0.0000    32.0000 </r>
       <r>   -25.1123     0.0000    32.0000 </r>
       <r>   -24.9781     0.0000    32.0000 </r>
       <r>   -24.8440     0.0005    32.0001 </r>
       <r>   -24.7098     3.6629    32.4914 </r>
       <r>   -24.5757     6.4160    33.3521 </r>
       <r>   -24.4415     4.8394    34.0013 </r>
       <r>   -24.3074     5.9888    34.8047 </r>
       <r>   -24.1732     1.4556    35.0000 </r>
       <r>   -24.0391     0.0000    35.0000 </r>
       <r>   -23.9049     0.0000    35.0000 </r>
       <r>   -23.7708     0.0000    35.0000 </r>
       <r>   -23.6366     0.0000    35.0000 </r>
       <r>   -23.5025     0.0000    35.0000 </r>
       <r>   -23.3683     0.0007    35.0001 </r>
       <r>   -23.2342     3.9012    35.5234 </r>
       <r>   -23.1000     3.5521    35.9999 </r>
       <r>   -22.9659     0.0004    36.0000 </r>
       <r>   -22.8317     0.0014    36.0002 </r>
       <r>   -22.6976     5.7129    36.7666 </r>
       <r>   -22.5634     9.1781    37.9978 </r>
       <r>   -22.4293     0.0164    38.0000 </r>
       <r>   -22.2951     0.0000    38.0000 </r>
       <r>   -22.1610     0.0008    38.0001 </r>
       <r>   -22.0268     3.9615    38.5315 </r>
       <r>   -21.8927     8.2567    39.6392 </r>
       <r>   -21.7585    10.0969    40.9936 </r>
       <r>   -21.6244     0.3700    41.0433 </r>
       <r>   -21.4903    13.9432    42.9137 </r>
       <r>   -21.3561     1.3780    43.0986 </r>
       <r>   -21.2220     6.6738    43.9939 </r>
       <r>   -21.0878     0.0457    44.0000 </r>
       <r>   -20.9537     0.0000    44.0000 </r>
       <r>   -20.8195     0.2715    44.0364 </r>
       <r>   -20.6854    13.7086    45.8754 </r>
       <r>   -20.5512     4.4396    46.4710 </r>
       <r>   -20.4171    35.1554    51.1870 </r>
       <r>   -20.2829    28.6177    55.0261 </r>
       <r>   -20.1488    50.7075    61.8284 </r>
       <r>   -20.0146    61.9874    70.1440 </r>
       <r>   -19.8805    69.0346    79.4049 </r>
       <r>   -19.7463    39.7003    84.7306 </r>
       <r>   -19.6122    16.2861    86.9154 </r>
       <r>   -19.4780    41.2776    92.4527 </r>
       <r>   -19.3439    25.7539    95.9076 </r>
       <r>   -19.2097    34.9125   100.5910 </r>
       <r>   -19.0756     9.1872   101.8235 </r>
       <r>   -18.9414    55.0044   109.2022 </r>
       <r>   -18.8073    39.2446   114.4669 </r>
       <r>   -18.6731    18.3313   116.9260 </r>
       <r>   -18.5390    30.6036   121.0314 </r>
       <r>   -18.4048    14.6355   122.9948 </r>
       <r>   -18.2707     7.2994   123.9740 </r>
       <r>   -18.1365    46.4223   130.2015 </r>
       <r>   -18.0024    36.9084   135.1527 </r>
       <r>   -17.8682    18.5798   137.6452 </r>
       <r>   -17.7341    40.8019   143.1187 </r>
       <r>   -17.5999    86.5730   154.7324 </r>
       <r>   -17.4658    73.9041   164.6465 </r>
       <r>   -17.3316    32.0740   168.9492 </r>
       <r>   -17.1975    27.3035   172.6119 </r>
       <r>   -17.0633    30.5728   176.7132 </r>
       <r>   -16.9292    14.6472   178.6781 </r>
       <r>   -16.7950     9.5968   179.9655 </r>
       <r>   -16.6609     0.2710   180.0019 </r>
       <r>   -16.5267     8.2438   181.1078 </r>
       <r>   -16.3926    23.8043   184.3011 </r>
       <r>   -16.2584    41.4468   189.8611 </r>
       <r>   -16.1243    23.6658   193.0359 </r>
       <r>   -15.9902    45.6553   199.1605 </r>
       <r>   -15.8560    27.5641   202.8581 </r>
       <r>   -15.7219    12.9438   204.5945 </r>
       <r>   -15.5877    40.5085   210.0287 </r>
       <r>   -15.4536    50.3481   216.7828 </r>
       <r>   -15.3194    30.9517   220.9350 </r>
       <r>   -15.1853     0.6575   221.0232 </r>
       <r>   -15.0511    27.6087   224.7268 </r>
       <r>   -14.9170    77.1213   235.0726 </r>
       <r>   -14.7828    30.2428   239.1296 </r>
       <r>   -14.6487     8.0914   240.2151 </r>
       <r>   -14.5145    18.0855   242.6412 </r>
       <r>   -14.3804     3.0347   243.0483 </r>
       <r>   -14.2462    13.6682   244.8819 </r>
       <r>   -14.1121     8.2773   245.9923 </r>
       <r>   -13.9779     0.0577   246.0000 </r>
       <r>   -13.8438     0.0000   246.0000 </r>
       <r>   -13.7096     0.0000   246.0000 </r>
       <r>   -13.5755     0.0000   246.0000 </r>
       <r>   -13.4413     0.0000   246.0000 </r>
       <r>   -13.3072     0.0000   246.0000 </r>
       <r>   -13.1730     0.0000   246.0000 </r>
       <r>   -13.0389     0.0000   246.0000 </r>
       <r>   -12.9047     0.8936   246.1199 </r>
       <r>   -12.7706     6.5279   246.9956 </r>
       <r>   -12.6364     0.0329   247.0000 </r>
       <r>   -12.5023     0.0000   247.0000 </r>
       <r>   -12.3681     0.0000   247.0000 </r>
       <r>   -12.2340     0.0000   247.0000 </r>
       <r>   -12.0998     0.0336   247.0045 </r>
       <r>   -11.9657     6.5374   247.8815 </r>
       <r>   -11.8315     0.8835   248.0000 </r>
       <r>   -11.6974     2.0481   248.2747 </r>
       <r>   -11.5632     5.4204   249.0019 </r>
       <r>   -11.4291     6.2537   249.8408 </r>
       <r>   -11.2949     1.1866   250.0000 </r>
       <r>   -11.1608     0.2620   250.0351 </r>
       <r>   -11.0266     7.0164   250.9764 </r>
       <r>   -10.8925     0.1760   251.0000 </r>
       <r>   -10.7584     0.0000   251.0000 </r>
       <r>   -10.6242     0.0000   251.0000 </r>
       <r>   -10.4901     0.8087   251.1085 </r>
       <r>   -10.3559     8.8841   252.3003 </r>
       <r>   -10.2218     5.2122   252.9995 </r>
       <r>   -10.0876     0.0136   253.0013 </r>
       <r>    -9.9535     8.1018   254.0882 </r>
       <r>    -9.8193    12.5686   255.7742 </r>
       <r>    -9.6852     1.6868   256.0005 </r>
       <r>    -9.5510     5.1645   256.6933 </r>
       <r>    -9.4169     6.5585   257.5731 </r>
       <r>    -9.2827    10.3607   258.9630 </r>
       <r>    -9.1486     6.5712   259.8445 </r>
       <r>    -9.0144     8.1220   260.9341 </r>
       <r>    -8.8803     4.1051   261.4848 </r>
       <r>    -8.7461     3.8686   262.0037 </r>
       <r>    -8.6120     7.8083   263.0512 </r>
       <r>    -8.4778    15.4031   265.1175 </r>
       <r>    -8.3437    25.4824   268.5360 </r>
       <r>    -8.2095    36.5616   273.4407 </r>
       <r>    -8.0754    35.7506   278.2365 </r>
       <r>    -7.9412    15.5519   280.3228 </r>
       <r>    -7.8071    17.6261   282.6873 </r>
       <r>    -7.6729    10.0918   284.0411 </r>
       <r>    -7.5388    12.4508   285.7114 </r>
       <r>    -7.4046     9.2253   286.9490 </r>
       <r>    -7.2705     0.6253   287.0328 </r>
       <r>    -7.1363     7.0205   287.9746 </r>
       <r>    -7.0022     0.1907   288.0002 </r>
       <r>    -6.8680     4.5522   288.6109 </r>
       <r>    -6.7339     4.5534   289.2217 </r>
       <r>    -6.5997    13.2211   290.9953 </r>
       <r>    -6.4656     6.7060   291.8949 </r>
       <r>    -6.3314     6.7989   292.8070 </r>
       <r>    -6.1973     9.2599   294.0492 </r>
       <r>    -6.0631    14.1239   295.9439 </r>
       <r>    -5.9290     3.3775   296.3970 </r>
       <r>    -5.7948    18.8638   298.9275 </r>
       <r>    -5.6607     7.2610   299.9016 </r>
       <r>    -5.5265     8.0941   300.9874 </r>
       <r>    -5.3924    14.0486   302.8720 </r>
       <r>    -5.2583     9.9549   304.2074 </r>
       <r>    -5.1241    28.3854   308.0153 </r>
       <r>    -4.9900    27.2535   311.6713 </r>
       <r>    -4.8558    18.6004   314.1665 </r>
       <r>    -4.7217    68.2082   323.3166 </r>
       <r>    -4.5875    62.5717   331.7105 </r>
       <r>    -4.4534    58.9554   339.6193 </r>
       <r>    -4.3192   101.3357   353.2134 </r>
       <r>    -4.1851    83.7625   364.4500 </r>
       <r>    -4.0509    74.8456   374.4904 </r>
       <r>    -3.9168    78.2735   384.9907 </r>
       <r>    -3.7826    49.0710   391.5736 </r>
       <r>    -3.6485    34.5413   396.2072 </r>
       <r>    -3.5143    49.9558   402.9087 </r>
       <r>    -3.3802    62.9923   411.3591 </r>
       <r>    -3.2460    62.8417   419.7892 </r>
       <r>    -3.1119    59.4520   427.7646 </r>
       <r>    -2.9777    97.9996   440.9112 </r>
       <r>    -2.8436    57.2852   448.5959 </r>
       <r>    -2.7094    96.7083   461.5692 </r>
       <r>    -2.5753    97.4673   474.6443 </r>
       <r>    -2.4411   133.7796   492.5907 </r>
       <r>    -2.3070   108.3761   507.1292 </r>
       <r>    -2.1728   107.4447   521.5428 </r>
       <r>    -2.0387   125.2054   538.3389 </r>
       <r>    -1.9045    96.9162   551.3401 </r>
       <r>    -1.7704    54.8263   558.6950 </r>
       <r>    -1.6362    51.7831   565.6416 </r>
       <r>    -1.5021    10.1216   566.9994 </r>
       <r>    -1.3679     0.0045   567.0000 </r>
       <r>    -1.2338     2.8811   567.3865 </r>
       <r>    -1.0996    43.9574   573.2833 </r>
       <r>    -0.9655   120.5045   589.4489 </r>
       <r>    -0.8313    70.1981   598.8659 </r>
       <r>    -0.6972    37.0616   603.8376 </r>
       <r>    -0.5630    13.6001   605.6621 </r>
       <r>    -0.4289    19.3385   608.2563 </r>
       <r>    -0.2947    13.6662   610.0896 </r>
       <r>    -0.1606     9.2907   611.3359 </r>
       <r>    -0.0264     4.9474   611.9996 </r>
       <r>     0.1077     0.0027   612.0000 </r>
       <r>     0.2418     0.0000   612.0000 </r>
       <r>     0.3760     0.0000   612.0000 </r>
       <r>     0.5101     0.2570   612.0345 </r>
       <r>     0.6443    44.0363   617.9419 </r>
       <r>     0.7784   212.0092   646.3827 </r>
       <r>     0.9126   310.8758   688.0863 </r>
       <r>     1.0467   298.2089   728.0906 </r>
       <r>     1.1809   255.4585   762.3601 </r>
       <r>     1.3150    41.9727   767.9907 </r>
       <r>     1.4492     0.0697   768.0000 </r>
       <r>     1.5833     0.0000   768.0000 </r>
       <r>     1.7175     0.0000   768.0000 </r>
       <r>     1.8516     0.0000   768.0000 </r>
       <r>     1.9858     0.0000   768.0000 </r>
       <r>     2.1199     0.0000   768.0000 </r>
       <r>     2.2541     0.0000   768.0000 </r>
       <r>     2.3882     0.0000   768.0000 </r>
       <r>     2.5224     0.0000   768.0000 </r>
       <r>     2.6565     0.0000   768.0000 </r>
       <r>     2.7907     0.0000   768.0000 </r>
       <r>     2.9248     0.0000   768.0000 </r>
       <r>     3.0590     0.0000   768.0000 </r>
      </set>
     </set>
    </array>
   </total>
  </dos>
  <time name="totalsc">  456.22  456.55</time>
 </calculation>
 <calculation>
  <scstep>
   <time name="dav">    3.89    3.89</time>
   <time name="total">    5.18    5.19</time>
   <energy>
    <i name="alphaZ">   2397.92104513 </i>
    <i name="ewald"> 142375.48984807 </i>
    <i name="hartreedc">-224958.02488675 </i>
    <i name="XCdc">   3547.10412995 </i>
    <i name="pawpsdc">  86654.55352880 </i>
    <i name="pawaedc"> -85853.06674228 </i>
    <i name="eentropy">     -0.02786656 </i>
    <i name="bandstr"> -12480.92256489 </i>
    <i name="atom">  87776.77885653 </i>
    <i name="e_fr_energy">   -540.19465201 </i>
    <i name="e_wo_entrp">   -540.16678545 </i>
    <i name="e_0_energy">   -540.18071873 </i>
   </energy>
  </scstep>
  <scstep>
   <time name="diag">    0.70    0.70</time>
   <time name="diis">    2.82    2.82</time>
   <time name="orth">    0.14    0.14</time>
   <time name="total">    4.94    4.95</time>
   <energy>
    <i name="e_fr_energy">   -890.32780798 </i>
    <i name="e_wo_entrp">   -890.11969752 </i>
    <i name="e_0_energy">   -890.22375275 </i>
   </energy>
  </scstep>
  <scstep>
   <time name="diag">    0.70    0.70</time>
   <time name="diis">    3.05    3.05</time>
   <time name="orth">    0.14    0.14</time>
   <time name="total">    5.18    5.18</time>
   <energy>
    <i name="e_fr_energy">   -944.10896607 </i>
    <i name="e_wo_entrp">   -944.01732343 </i>
    <i name="e_0_energy">   -944.06314475 </i>
   </energy>
  </scstep>
  <scstep>
   <time name="diag">    0.69    0.69</time>
   <time name="diis">    3.07    3.07</time>
   <time name="orth">    0.14    0.14</time>
   <time name="total">    5.19    5.19</time>
   <energy>
    <i name="e_fr_energy">  -2049.91750114 </i>
    <i name="e_wo_entrp">  -2049.83245460 </i>
    <i name="e_0_energy">  -2049.87497787 </i>
   </energy>
  </scstep>
  <scstep>
   <time name="diag">    0.70    0.70</time>
   <time name="diis">    3.15    3.15</time>
   <time name="orth">    0.14    0.14</time>
   <time name="total">    5.29    5.30</time>
   <energy>
    <i name="e_fr_energy">  -2060.90002861 </i>
    <i name="e_wo_entrp">  -2060.77818014 </i>
    <i name="e_0_energy">  -2060.83910438 </i>
   </energy>
  </scstep>
  <scstep>
   <time name="diag">    0.72    0.72</time>
   <time name="diis">    3.17    3.17</time>
   <time name="orth">    0.14    0.14</time>
   <time name="total">    5.32    5.32</time>
   <energy>
    <i name="e_fr_energy">  -1959.60147914 </i>
    <i name="e_wo_entrp">  -1959.55412678 </i>
    <i name="e_0_energy">  -1959.57780296 </i>
   </energy>
  </scstep>
  <scstep>
   <time name="diag">    0.69    0.69</time>
   <time name="diis">    3.07    3.07</time>
   <time name="orth">    0.14    0.14</time>
   <time name="total">    5.20    5.20</time>
   <energy>
    <i name="e_fr_energy">  -1597.61049322 </i>
    <i name="e_wo_entrp">  -1597.53092886 </i>
    <i name="e_0_energy">  -1597.57071104 </i>
   </energy>
  </scstep>
  <scstep>
   <time name="diag">    0.68    0.68</time>
   <time name="diis">    2.95    2.95</time>
   <time name="orth">    0.14    0.14</time>
   <time name="total">    5.06    5.07</time>
   <energy>
    <i name="e_fr_energy">  -1286.91837408 </i>
    <i name="e_wo_entrp">  -1286.81040621 </i>
    <i name="e_0_energy">  -1286.86439015 </i>
   </energy>
  </scstep>
  <scstep>
   <time name="diag">    0.70    0.70</time>
   <time name="diis">    2.97    2.97</time>
   <time name="orth">    0.14    0.14</time>
   <time name="total">    5.10    5.11</time>
   <energy>
    <i name="e_fr_energy">   -986.80691544 </i>
    <i name="e_wo_entrp">   -986.72191090 </i>
    <i name="e_0_energy">   -986.76441317 </i>
   </energy>
  </scstep>
  <scstep>
   <time name="diag">    0.68    0.68</time>
   <time name="diis">    2.89    2.90</time>
   <time name="orth">    0.14    0.14</time>
   <time name="total">    5.02    5.02</time>
   <energy>
    <i name="e_fr_energy">   -912.91500632 </i>
    <i name="e_wo_entrp">   -912.83322061 </i>
    <i name="e_0_energy">   -912.87411346 </i>
   </energy>
  </scstep>
  <scstep>
   <time name="diag">    0.68    0.68</time>
   <time name="diis">    2.94    2.94</time>
   <time name="orth">    0.14    0.14</time>
   <time name="total">    5.07    5.07</time>
   <energy>
    <i name="e_fr_energy">   -901.63706656 </i>
    <i name="e_wo_entrp">   -901.46365580 </i>
    <i name="e_0_energy">   -901.55036118 </i>
   </energy>
  </scstep>
  <scstep>
   <time name="diag">    0.68    0.68</time>
   <time name="diis">    2.91    2.91</time>
   <time name="orth">    0.14    0.14</time>
   <time name="total">    5.03    5.03</time>
   <energy>
    <i name="e_fr_energy">   -858.98257860 </i>
    <i name="e_wo_entrp">   -858.83595667 </i>
    <i name="e_0_energy">   -858.90926763 </i>
   </energy>
  </scstep>
  <scstep>
   <time name="diag">    0.68    0.68</time>
   <time name="diis">    2.92    2.93</time>
   <time name="orth">    0.14    0.14</time>
   <time name="total">    5.04    5.04</time>
   <energy>
    <i name="e_fr_energy">   -909.04804985 </i>
    <i name="e_wo_entrp">   -908.97002392 </i>
    <i name="e_0_energy">   -909.00903688 </i>
   </energy>
  </scstep>
  <scstep>
   <time name="diag">    0.68    0.68</time>
   <time name="diis">    3.02    3.02</time>
   <time name="orth">    0.14    0.14</time>
   <time name="total">    5.14    5.14</time>
   <energy>
    <i name="e_fr_energy">   -893.20608096 </i>
    <i name="e_wo_entrp">   -893.07941914 </i>
    <i name="e_0_energy">   -893.14275005 </i>
   </energy>
  </scstep>
  <scstep>
   <time name="diag">    0.68    0.68</time>
   <time name="diis">    3.03    3.03</time>
   <time name="orth">    0.14    0.14</time>
   <time name="total">    5.14    5.15</time>
   <energy>
    <i name="e_fr_energy">   -904.98496928 </i>
    <i name="e_wo_entrp">   -904.80889739 </i>
    <i name="e_0_energy">   -904.89693334 </i>
   </energy>
  </scstep>
  <scstep>
   <time name="diag">    0.68    0.68</time>
   <time name="diis">    2.98    2.98</time>
   <time name="orth">    0.14    0.14</time>
   <time name="total">    5.11    5.12</time>
   <energy>
    <i name="e_fr_energy">   -908.50576884 </i>
    <i name="e_wo_entrp">   -908.37404254 </i>
    <i name="e_0_energy">   -908.43990569 </i>
   </energy>
  </scstep>
  <scstep>
   <time name="diag">    0.68    0.68</time>
   <time name="diis">    3.10    3.11</time>
   <time name="orth">    0.14    0.14</time>
   <time name="total">    5.23    5.24</time>
   <energy>
    <i name="e_fr_energy">   -911.10260093 </i>
    <i name="e_wo_entrp">   -910.99757210 </i>
    <i name="e_0_energy">   -911.05008652 </i>
   </energy>
  </scstep>
  <scstep>
   <time name="diag">    0.68    0.68</time>
   <time name="diis">    3.14    3.14</time>
   <time name="orth">    0.14    0.14</time>
   <time name="total">    5.27    5.27</time>
   <energy>
    <i name="e_fr_energy">   -916.79600306 </i>
    <i name="e_wo_entrp">   -916.65444317 </i>
    <i name="e_0_energy">   -916.72522311 </i>
   </energy>
  </scstep>
  <scstep>
   <time name="diag">    0.68    0.68</time>
   <time name="diis">    3.19    3.19</time>
   <time name="orth">    0.14    0.14</time>
   <time name="total">    5.32    5.33</time>
   <energy>
    <i name="e_fr_energy">   -923.92086601 </i>
    <i name="e_wo_entrp">   -923.78954286 </i>
    <i name="e_0_energy">   -923.85520444 </i>
   </energy>
  </scstep>
  <scstep>
   <time name="diag">    0.68    0.68</time>
   <time name="diis">    3.19    3.20</time>
   <time name="orth">    0.14    0.14</time>
   <time name="total">    5.32    5.32</time>
   <energy>
    <i name="e_fr_energy">   -928.49646364 </i>
    <i name="e_wo_entrp">   -928.35404511 </i>
    <i name="e_0_energy">   -928.42525437 </i>
   </energy>
  </scstep>
  <scstep>
   <time name="diag">    0.68    0.68</time>
   <time name="diis">    3.21    3.21</time>
   <time name="orth">    0.14    0.14</time>
   <time name="total">    5.32    5.32</time>
   <energy>
    <i name="e_fr_energy">   -932.56435381 </i>
    <i name="e_wo_entrp">   -932.44081976 </i>
    <i name="e_0_energy">   -932.50258679 </i>
   </energy>
  </scstep>
  <scstep>
   <time name="diag">    0.68    0.68</time>
   <time name="diis">    3.21    3.22</time>
   <time name="orth">    0.14    0.14</time>
   <time name="total">    5.32    5.32</time>
   <energy>
    <i name="e_fr_energy">   -936.24394596 </i>
    <i name="e_wo_entrp">   -936.13526729 </i>
    <i name="e_0_energy">   -936.18960662 </i>
   </energy>
  </scstep>
  <scstep>
   <time name="diag">    0.68    0.68</time>
   <time name="diis">    3.17    3.17</time>
   <time name="orth">    0.14    0.14</time>
   <time name="total">    5.28    5.29</time>
   <energy>
    <i name="e_fr_energy">   -940.31557269 </i>
    <i name="e_wo_entrp">   -940.23229784 </i>
    <i name="e_0_energy">   -940.27393526 </i>
   </energy>
  </scstep>
  <scstep>
   <time name="diag">    0.68    0.68</time>
   <time name="diis">    3.16    3.16</time>
   <time name="orth">    0.14    0.14</time>
   <time name="total">    5.27    5.28</time>
   <energy>
    <i name="e_fr_energy">   -942.62574669 </i>
    <i name="e_wo_entrp">   -942.54372870 </i>
    <i name="e_0_energy">   -942.58473770 </i>
   </energy>
  </scstep>
  <scstep>
   <time name="diag">    0.68    0.68</time>
   <time name="diis">    3.20    3.20</time>
   <time name="orth">    0.14    0.14</time>
   <time name="total">    5.31    5.31</time>
   <energy>
    <i name="e_fr_energy">   -944.92554487 </i>
    <i name="e_wo_entrp">   -944.83958179 </i>
    <i name="e_0_energy">   -944.88256333 </i>
   </energy>
  </scstep>
  <scstep>
   <time name="diag">    0.68    0.68</time>
   <time name="diis">    3.12    3.13</time>
   <time name="orth">    0.14    0.14</time>
   <time name="total">    5.24    5.24</time>
   <energy>
    <i name="e_fr_energy">   -945.50421311 </i>
    <i name="e_wo_entrp">   -945.40349021 </i>
    <i name="e_0_energy">   -945.45385166 </i>
   </energy>
  </scstep>
  <scstep>
   <time name="diag">    0.68    0.68</time>
   <time name="diis">    3.16    3.16</time>
   <time name="orth">    0.14    0.14</time>
   <time name="total">    5.27    5.28</time>
   <energy>
    <i name="e_fr_energy">   -948.03168474 </i>
    <i name="e_wo_entrp">   -947.93214437 </i>
    <i name="e_0_energy">   -947.98191456 </i>
   </energy>
  </scstep>
  <scstep>
   <time name="diag">    0.69    0.69</time>
   <time name="diis">    3.17    3.17</time>
   <time name="orth">    0.14    0.14</time>
   <time name="total">    5.28    5.28</time>
   <energy>
    <i name="e_fr_energy">   -949.48606494 </i>
    <i name="e_wo_entrp">   -949.39287064 </i>
    <i name="e_0_energy">   -949.43946779 </i>
   </energy>
  </scstep>
  <scstep>
   <time name="diag">    0.69    0.69</time>
   <time name="diis">    3.14    3.14</time>
   <time name="orth">    0.14    0.14</time>
   <time name="total">    5.24    5.25</time>
   <energy>
    <i name="e_fr_energy">   -952.63988401 </i>
    <i name="e_wo_entrp">   -952.54293353 </i>
    <i name="e_0_energy">   -952.59140877 </i>
   </energy>
  </scstep>
  <scstep>
   <time name="diag">    0.69    0.69</time>
   <time name="diis">    3.13    3.13</time>
   <time name="orth">    0.14    0.14</time>
   <time name="total">    5.24    5.25</time>
   <energy>
    <i name="e_fr_energy">   -954.04449921 </i>
    <i name="e_wo_entrp">   -953.97203581 </i>
    <i name="e_0_energy">   -954.00826751 </i>
   </energy>
  </scstep>
  <scstep>
   <time name="diag">    0.68    0.68</time>
   <time name="diis">    3.16    3.16</time>
   <time name="orth">    0.14    0.14</time>
   <time name="total">    5.27    5.27</time>
   <energy>
    <i name="e_fr_energy">   -957.52310227 </i>
    <i name="e_wo_entrp">   -957.44732535 </i>
    <i name="e_0_energy">   -957.48521381 </i>
   </energy>
  </scstep>
  <scstep>
   <time name="diag">    0.68    0.68</time>
   <time name="diis">    3.19    3.19</time>
   <time name="orth">    0.14    0.14</time>
   <time name="total">    5.29    5.30</time>
   <energy>
    <i name="e_fr_energy">   -959.71862353 </i>
    <i name="e_wo_entrp">   -959.63818495 </i>
    <i name="e_0_energy">   -959.67840424 </i>
   </energy>
  </scstep>
  <scstep>
   <time name="diag">    0.68    0.68</time>
   <time name="diis">    3.14    3.15</time>
   <time name="orth">    0.14    0.14</time>
   <time name="total">    5.27    5.27</time>
   <energy>
    <i name="e_fr_energy">   -963.34391182 </i>
    <i name="e_wo_entrp">   -963.27694289 </i>
    <i name="e_0_energy">   -963.31042735 </i>
   </energy>
  </scstep>
  <scstep>
   <time name="diag">    0.68    0.68</time>
   <time name="diis">    3.15    3.15</time>
   <time name="orth">    0.14    0.14</time>
   <time name="total">    5.27    5.28</time>
   <energy>
    <i name="e_fr_energy">   -965.31254574 </i>
    <i name="e_wo_entrp">   -965.20901667 </i>
    <i name="e_0_energy">   -965.26078121 </i>
   </energy>
  </scstep>
  <scstep>
   <time name="diag">    0.68    0.69</time>
   <time name="diis">    3.14    3.14</time>
   <time name="orth">    0.14    0.14</time>
   <time name="total">    5.27    5.28</time>
   <energy>
    <i name="e_fr_energy">   -966.37878454 </i>
    <i name="e_wo_entrp">   -966.30836118 </i>
    <i name="e_0_energy">   -966.34357286 </i>
   </energy>
  </scstep>
  <scstep>
   <time name="diag">    0.68    0.68</time>
   <time name="diis">    3.14    3.14</time>
   <time name="orth">    0.14    0.14</time>
   <time name="total">    5.27    5.27</time>
   <energy>
    <i name="e_fr_energy">   -970.58265657 </i>
    <i name="e_wo_entrp">   -970.52181228 </i>
    <i name="e_0_energy">   -970.55223442 </i>
   </energy>
  </scstep>
  <scstep>
   <time name="diag">    0.68    0.68</time>
   <time name="diis">    3.17    3.17</time>
   <time name="orth">    0.14    0.14</time>
   <time name="total">    5.29    5.29</time>
   <energy>
    <i name="e_fr_energy">   -971.57138313 </i>
    <i name="e_wo_entrp">   -971.51169972 </i>
    <i name="e_0_energy">   -971.54154143 </i>
   </energy>
  </scstep>
  <scstep>
   <time name="diag">    0.68    0.68</time>
   <time name="diis">    3.15    3.16</time>
   <time name="orth">    0.14    0.14</time>
   <time name="total">    5.27    5.28</time>
   <energy>
    <i name="e_fr_energy">   -973.00380646 </i>
    <i name="e_wo_entrp">   -972.94368750 </i>
    <i name="e_0_energy">   -972.97374698 </i>
   </energy>
  </scstep>
  <scstep>
   <time name="diag">    0.68    0.68</time>
   <time name="diis">    3.15    3.15</time>
   <time name="orth">    0.14    0.14</time>
   <time name="total">    5.28    5.28</time>
   <energy>
    <i name="e_fr_energy">   -974.12267188 </i>
    <i name="e_wo_entrp">   -974.05454149 </i>
    <i name="e_0_energy">   -974.08860669 </i>
   </energy>
  </scstep>
  <scstep>
   <time name="diag">    0.68    0.68</time>
   <time name="diis">    3.17    3.17</time>
   <time name="orth">    0.14    0.14</time>
   <time name="total">    5.28    5.29</time>
   <energy>
    <i name="e_fr_energy">   -975.09124663 </i>
    <i name="e_wo_entrp">   -975.01930372 </i>
    <i name="e_0_energy">   -975.05527518 </i>
   </energy>
  </scstep>
  <scstep>
   <time name="diag">    0.68    0.68</time>
   <time name="diis">    3.15    3.16</time>
   <time name="orth">    0.14    0.14</time>
   <time name="total">    5.28    5.28</time>
   <energy>
    <i name="e_fr_energy">   -976.24555934 </i>
    <i name="e_wo_entrp">   -976.17300958 </i>
    <i name="e_0_energy">   -976.20928446 </i>
   </energy>
  </scstep>
  <scstep>
   <time name="diag">    0.68    0.68</time>
   <time name="diis">    3.15    3.15</time>
   <time name="orth">    0.14    0.14</time>
   <time name="total">    5.26    5.26</time>
   <energy>
    <i name="e_fr_energy">   -977.78015927 </i>
    <i name="e_wo_entrp">   -977.72777003 </i>
    <i name="e_0_energy">   -977.75396465 </i>
   </energy>
  </scstep>
  <scstep>
   <time name="diag">    0.69    0.69</time>
   <time name="diis">    3.18    3.19</time>
   <time name="orth">    0.14    0.14</time>
   <time name="total">    5.31    5.32</time>
   <energy>
    <i name="e_fr_energy">   -978.63262941 </i>
    <i name="e_wo_entrp">   -978.58270605 </i>
    <i name="e_0_energy">   -978.60766773 </i>
   </energy>
  </scstep>
  <scstep>
   <time name="diag">    0.69    0.69</time>
   <time name="diis">    3.16    3.17</time>
   <time name="orth">    0.14    0.14</time>
   <time name="total">    5.30    5.30</time>
   <energy>
    <i name="e_fr_energy">   -979.65452868 </i>
    <i name="e_wo_entrp">   -979.60530021 </i>
    <i name="e_0_energy">   -979.62991444 </i>
   </energy>
  </scstep>
  <scstep>
   <time name="diag">    0.68    0.68</time>
   <time name="diis">    3.14    3.14</time>
   <time name="orth">    0.14    0.14</time>
   <time name="total">    5.27    5.27</time>
   <energy>
    <i name="e_fr_energy">   -980.66931894 </i>
    <i name="e_wo_entrp">   -980.62080473 </i>
    <i name="e_0_energy">   -980.64506184 </i>
   </energy>
  </scstep>
  <scstep>
   <time name="diag">    0.69    0.69</time>
   <time name="diis">    3.16    3.16</time>
   <time name="orth">    0.14    0.14</time>
   <time name="total">    5.30    5.30</time>
   <energy>
    <i name="e_fr_energy">   -981.28901482 </i>
    <i name="e_wo_entrp">   -981.22721940 </i>
    <i name="e_0_energy">   -981.25811711 </i>
   </energy>
  </scstep>
  <scstep>
   <time name="diag">    0.69    0.69</time>
   <time name="diis">    3.29    3.29</time>
   <time name="orth">    0.14    0.14</time>
   <time name="total">    5.41    5.41</time>
   <energy>
    <i name="e_fr_energy">   -918.21158200 </i>
    <i name="e_wo_entrp">   -918.06965755 </i>
    <i name="e_0_energy">   -918.14061977 </i>
   </energy>
  </scstep>
  <scstep>
   <time name="diag">    0.69    0.69</time>
   <time name="diis">    3.34    3.34</time>
   <time name="orth">    0.14    0.14</time>
   <time name="total">    5.47    5.47</time>
   <energy>
    <i name="e_fr_energy">   -913.69609521 </i>
    <i name="e_wo_entrp">   -913.59003006 </i>
    <i name="e_0_energy">   -913.64306263 </i>
   </energy>
  </scstep>
  <scstep>
   <time name="diag">    0.69    0.69</time>
   <time name="diis">    3.28    3.28</time>
   <time name="orth">    0.14    0.14</time>
   <time name="total">    5.41    5.41</time>
   <energy>
    <i name="e_fr_energy">   -873.91979671 </i>
    <i name="e_wo_entrp">   -873.84294466 </i>
    <i name="e_0_energy">   -873.88137069 </i>
   </energy>
  </scstep>
  <scstep>
   <time name="diag">    0.69    0.69</time>
   <time name="diis">    3.26    3.26</time>
   <time name="orth">    0.15    0.15</time>
   <time name="total">    5.39    5.40</time>
   <energy>
    <i name="e_fr_energy">   -853.86918044 </i>
    <i name="e_wo_entrp">   -853.80294360 </i>
    <i name="e_0_energy">   -853.83606202 </i>
   </energy>
  </scstep>
  <scstep>
   <time name="diag">    0.69    0.69</time>
   <time name="diis">    3.23    3.23</time>
   <time name="orth">    0.14    0.14</time>
   <time name="total">    5.36    5.36</time>
   <energy>
    <i name="e_fr_energy">   -827.19708705 </i>
    <i name="e_wo_entrp">   -827.13114105 </i>
    <i name="e_0_energy">   -827.16411405 </i>
   </energy>
  </scstep>
  <scstep>
   <time name="diag">    0.69    0.69</time>
   <time name="diis">    3.25    3.25</time>
   <time name="orth">    0.14    0.14</time>
   <time name="total">    5.39    5.39</time>
   <energy>
    <i name="e_fr_energy">   -793.85330110 </i>
    <i name="e_wo_entrp">   -793.77326938 </i>
    <i name="e_0_energy">   -793.81328524 </i>
   </energy>
  </scstep>
  <scstep>
   <time name="diag">    0.69    0.69</time>
   <time name="diis">    3.25    3.25</time>
   <time name="orth">    0.14    0.14</time>
   <time name="total">    5.37    5.37</time>
   <energy>
    <i name="e_fr_energy">   -773.92620050 </i>
    <i name="e_wo_entrp">   -773.85678879 </i>
    <i name="e_0_energy">   -773.89149464 </i>
   </energy>
  </scstep>
  <scstep>
   <time name="diag">    0.68    0.68</time>
   <time name="diis">    3.25    3.25</time>
   <time name="orth">    0.14    0.14</time>
   <time name="total">    5.37    5.37</time>
   <energy>
    <i name="e_fr_energy">   -769.84390713 </i>
    <i name="e_wo_entrp">   -769.75403436 </i>
    <i name="e_0_energy">   -769.79897075 </i>
   </energy>
  </scstep>
  <scstep>
   <time name="diag">    0.68    0.69</time>
   <time name="diis">    3.25    3.25</time>
   <time name="orth">    0.14    0.14</time>
   <time name="total">    5.38    5.38</time>
   <energy>
    <i name="e_fr_energy">   -749.00948999 </i>
    <i name="e_wo_entrp">   -748.93163282 </i>
    <i name="e_0_energy">   -748.97056141 </i>
   </energy>
  </scstep>
  <scstep>
   <time name="diag">    0.69    0.69</time>
   <time name="diis">    3.25    3.25</time>
   <time name="orth">    0.14    0.14</time>
   <time name="total">    5.38    5.38</time>
   <energy>
    <i name="e_fr_energy">   -727.65981430 </i>
    <i name="e_wo_entrp">   -727.57162384 </i>
    <i name="e_0_energy">   -727.61571907 </i>
   </energy>
  </scstep>
  <scstep>
   <time name="diag">    0.69    0.69</time>
   <time name="diis">    3.24    3.25</time>
   <time name="orth">    0.14    0.14</time>
   <time name="total">    5.38    5.38</time>
   <energy>
    <i name="e_fr_energy">   -729.69405504 </i>
    <i name="e_wo_entrp">   -729.60095814 </i>
    <i name="e_0_energy">   -729.64750659 </i>
   </energy>
  </scstep>
  <scstep>
   <time name="diag">    0.69    0.69</time>
   <time name="diis">    3.24    3.24</time>
   <time name="orth">    0.14    0.14</time>
   <time name="total">    5.36    5.37</time>
   <energy>
    <i name="e_fr_energy">   -715.53824904 </i>
    <i name="e_wo_entrp">   -715.46305214 </i>
    <i name="e_0_energy">   -715.50065059 </i>
   </energy>
  </scstep>
  <scstep>
   <time name="diag">    0.69    0.69</time>
   <time name="diis">    3.22    3.22</time>
   <time name="orth">    0.14    0.14</time>
   <time name="total">    5.35    5.35</time>
   <energy>
    <i name="e_fr_energy">   -704.92982555 </i>
    <i name="e_wo_entrp">   -704.84324836 </i>
    <i name="e_0_energy">   -704.88653695 </i>
   </energy>
  </scstep>
  <scstep>
   <time name="diag">    0.69    0.69</time>
   <time name="diis">    3.21    3.21</time>
   <time name="orth">    0.14    0.14</time>
   <time name="total">    5.33    5.34</time>
   <energy>
    <i name="e_fr_energy">   -702.88773264 </i>
    <i name="e_wo_entrp">   -702.77890089 </i>
    <i name="e_0_energy">   -702.83331676 </i>
   </energy>
  </scstep>
  <scstep>
   <time name="diag">    0.69    0.69</time>
   <time name="diis">    3.24    3.24</time>
   <time name="orth">    0.14    0.14</time>
   <time name="total">    5.37    5.37</time>
   <energy>
    <i name="e_fr_energy">   -699.89944029 </i>
    <i name="e_wo_entrp">   -699.79796403 </i>
    <i name="e_0_energy">   -699.84870216 </i>
   </energy>
  </scstep>
  <scstep>
   <time name="diag">    0.69    0.69</time>
   <time name="diis">    3.28    3.29</time>
   <time name="orth">    0.14    0.14</time>
   <time name="total">    5.41    5.41</time>
   <energy>
    <i name="e_fr_energy">   -856.38129530 </i>
    <i name="e_wo_entrp">   -856.31438648 </i>
    <i name="e_0_energy">   -856.34784089 </i>
   </energy>
  </scstep>
  <scstep>
   <time name="diag">    0.69    0.69</time>
   <time name="diis">    3.28    3.28</time>
   <time name="orth">    0.14    0.14</time>
   <time name="total">    5.41    5.41</time>
   <energy>
    <i name="e_fr_energy">   -787.16791105 </i>
    <i name="e_wo_entrp">   -787.11633094 </i>
    <i name="e_0_energy">   -787.14212099 </i>
   </energy>
  </scstep>
  <scstep>
   <time name="diag">    0.69    0.69</time>
   <time name="diis">    3.23    3.24</time>
   <time name="orth">    0.14    0.14</time>
   <time name="total">    5.38    5.38</time>
   <energy>
    <i name="e_fr_energy">   -763.37661704 </i>
    <i name="e_wo_entrp">   -763.30135995 </i>
    <i name="e_0_energy">   -763.33898849 </i>
   </energy>
  </scstep>
  <scstep>
   <time name="diag">    0.69    0.69</time>
   <time name="diis">    3.22    3.22</time>
   <time name="orth">    0.14    0.14</time>
   <time name="total">    5.36    5.36</time>
   <energy>
    <i name="e_fr_energy">   -754.54059659 </i>
    <i name="e_wo_entrp">   -754.48215094 </i>
    <i name="e_0_energy">   -754.51137377 </i>
   </energy>
  </scstep>
  <scstep>
   <time name="diag">    0.69    0.69</time>
   <time name="diis">    3.24    3.25</time>
   <time name="orth">    0.14    0.14</time>
   <time name="total">    5.37    5.38</time>
   <energy>
    <i name="e_fr_energy">   -761.62617044 </i>
    <i name="e_wo_entrp">   -761.55438905 </i>
    <i name="e_0_energy">   -761.59027974 </i>
   </energy>
  </scstep>
  <scstep>
   <time name="diag">    0.69    0.69</time>
   <time name="diis">    3.25    3.25</time>
   <time name="orth">    0.14    0.14</time>
   <time name="total">    5.37    5.38</time>
   <energy>
    <i name="e_fr_energy">   -835.54500507 </i>
    <i name="e_wo_entrp">   -835.42087165 </i>
    <i name="e_0_energy">   -835.48293836 </i>
   </energy>
  </scstep>
  <scstep>
   <time name="diag">    0.69    0.69</time>
   <time name="diis">    3.27    3.27</time>
   <time name="orth">    0.14    0.14</time>
   <time name="total">    5.39    5.40</time>
   <energy>
    <i name="e_fr_energy">   -837.61497272 </i>
    <i name="e_wo_entrp">   -837.55250225 </i>
    <i name="e_0_energy">   -837.58373749 </i>
   </energy>
  </scstep>
  <scstep>
   <time name="diag">    0.69    0.69</time>
   <time name="diis">    3.25    3.25</time>
   <time name="orth">    0.14    0.14</time>
   <time name="total">    5.37    5.37</time>
   <energy>
    <i name="e_fr_energy">   -831.83730698 </i>
    <i name="e_wo_entrp">   -831.78174800 </i>
    <i name="e_0_energy">   -831.80952749 </i>
   </energy>
  </scstep>
  <scstep>
   <time name="diag">    0.69    0.69</time>
   <time name="diis">    3.24    3.24</time>
   <time name="orth">    0.14    0.14</time>
   <time name="total">    5.36    5.37</time>
   <energy>
    <i name="e_fr_energy">   -828.15483559 </i>
    <i name="e_wo_entrp">   -828.07387284 </i>
    <i name="e_0_energy">   -828.11435421 </i>
   </energy>
  </scstep>
  <scstep>
   <time name="diag">    0.69    0.69</time>
   <time name="diis">    3.28    3.28</time>
   <time name="orth">    0.14    0.14</time>
   <time name="total">    5.41    5.41</time>
   <energy>
    <i name="e_fr_energy">   -824.82129538 </i>
    <i name="e_wo_entrp">   -824.73688892 </i>
    <i name="e_0_energy">   -824.77909215 </i>
   </energy>
  </scstep>
  <scstep>
   <time name="diag">    0.69    0.69</time>
   <time name="diis">    3.28    3.28</time>
   <time name="orth">    0.14    0.14</time>
   <time name="total">    5.41    5.42</time>
   <energy>
    <i name="e_fr_energy">   -962.85702850 </i>
    <i name="e_wo_entrp">   -962.76081214 </i>
    <i name="e_0_energy">   -962.80892032 </i>
   </energy>
  </scstep>
  <scstep>
   <time name="diag">    0.69    0.69</time>
   <time name="diis">    3.26    3.26</time>
   <time name="orth">    0.14    0.14</time>
   <time name="total">    5.39    5.40</time>
   <energy>
    <i name="e_fr_energy">   -942.20588787 </i>
    <i name="e_wo_entrp">   -942.15494639 </i>
    <i name="e_0_energy">   -942.18041713 </i>
   </energy>
  </scstep>
  <scstep>
   <time name="diag">    0.69    0.69</time>
   <time name="diis">    3.23    3.24</time>
   <time name="orth">    0.14    0.14</time>
   <time name="total">    5.37    5.37</time>
   <energy>
    <i name="e_fr_energy">   -931.49378358 </i>
    <i name="e_wo_entrp">   -931.45858648 </i>
    <i name="e_0_energy">   -931.47618503 </i>
   </energy>
  </scstep>
  <scstep>
   <time name="diag">    0.68    0.69</time>
   <time name="diis">    3.25    3.25</time>
   <time name="orth">    0.14    0.14</time>
   <time name="total">    5.38    5.38</time>
   <energy>
    <i name="e_fr_energy">   -923.03256660 </i>
    <i name="e_wo_entrp">   -922.97693932 </i>
    <i name="e_0_energy">   -923.00475296 </i>
   </energy>
  </scstep>
  <scstep>
   <time name="diag">    0.68    0.68</time>
   <time name="diis">    3.25    3.25</time>
   <time name="orth">    0.14    0.14</time>
   <time name="total">    5.38    5.38</time>
   <energy>
    <i name="e_fr_energy">   -919.21649606 </i>
    <i name="e_wo_entrp">   -919.17421151 </i>
    <i name="e_0_energy">   -919.19535378 </i>
   </energy>
  </scstep>
  <scstep>
   <time name="diag">    0.68    0.69</time>
   <time name="diis">    3.27    3.27</time>
   <time name="orth">    0.14    0.14</time>
   <time name="total">    5.39    5.40</time>
   <energy>
    <i name="e_fr_energy">   -944.03158033 </i>
    <i name="e_wo_entrp">   -943.98052524 </i>
    <i name="e_0_energy">   -944.00605278 </i>
   </energy>
  </scstep>
  <scstep>
   <time name="diag">    0.69    0.69</time>
   <time name="diis">    3.27    3.27</time>
   <time name="orth">    0.14    0.14</time>
   <time name="total">    5.41    5.41</time>
   <energy>
    <i name="e_fr_energy">   -933.18286568 </i>
    <i name="e_wo_entrp">   -933.12599528 </i>
    <i name="e_0_energy">   -933.15443048 </i>
   </energy>
  </scstep>
  <scstep>
   <time name="diag">    0.68    0.68</time>
   <time name="diis">    3.24    3.24</time>
   <time name="orth">    0.14    0.14</time>
   <time name="total">    5.37    5.37</time>
   <energy>
    <i name="e_fr_energy">   -930.56341330 </i>
    <i name="e_wo_entrp">   -930.50057571 </i>
    <i name="e_0_energy">   -930.53199451 </i>
   </energy>
  </scstep>
  <scstep>
   <time name="diag">    0.68    0.68</time>
   <time name="diis">    3.21    3.21</time>
   <time name="orth">    0.14    0.14</time>
   <time name="total">    5.33    5.33</time>
   <energy>
    <i name="e_fr_energy">   -930.22551722 </i>
    <i name="e_wo_entrp">   -930.13152465 </i>
    <i name="e_0_energy">   -930.17852094 </i>
   </energy>
  </scstep>
  <scstep>
   <time name="diag">    0.68    0.68</time>
   <time name="diis">    3.21    3.21</time>
   <time name="orth">    0.14    0.14</time>
   <time name="total">    5.34    5.34</time>
   <energy>
    <i name="e_fr_energy">   -930.32816003 </i>
    <i name="e_wo_entrp">   -930.29708456 </i>
    <i name="e_0_energy">   -930.31262230 </i>
   </energy>
  </scstep>
  <scstep>
   <time name="diag">    0.68    0.69</time>
   <time name="diis">    3.24    3.24</time>
   <time name="orth">    0.14    0.14</time>
   <time name="total">    5.36    5.36</time>
   <energy>
    <i name="e_fr_energy">   -942.03940590 </i>
    <i name="e_wo_entrp">   -941.98858886 </i>
    <i name="e_0_energy">   -942.01399738 </i>
   </energy>
  </scstep>
  <scstep>
   <time name="diag">    0.68    0.68</time>
   <time name="diis">    3.27    3.27</time>
   <time name="orth">    0.14    0.14</time>
   <time name="total">    5.40    5.40</time>
   <energy>
    <i name="e_fr_energy">   -938.37665165 </i>
    <i name="e_wo_entrp">   -938.32524564 </i>
    <i name="e_0_energy">   -938.35094864 </i>
   </energy>
  </scstep>
  <scstep>
   <time name="diag">    0.69    0.69</time>
   <time name="diis">    3.12    3.12</time>
   <time name="orth">    0.14    0.14</time>
   <time name="total">    5.25    5.25</time>
   <energy>
    <i name="e_fr_energy">   -936.47778533 </i>
    <i name="e_wo_entrp">   -936.41106295 </i>
    <i name="e_0_energy">   -936.44442414 </i>
   </energy>
  </scstep>
  <scstep>
   <time name="diag">    0.69    0.69</time>
   <time name="diis">    3.12    3.12</time>
   <time name="orth">    0.14    0.14</time>
   <time name="total">    5.25    5.25</time>
   <energy>
    <i name="e_fr_energy">   -936.76868270 </i>
    <i name="e_wo_entrp">   -936.72083963 </i>
    <i name="e_0_energy">   -936.74476116 </i>
   </energy>
  </scstep>
  <scstep>
   <time name="diag">    0.69    0.69</time>
   <time name="diis">    2.94    2.94</time>
   <time name="orth">    0.14    0.14</time>
   <time name="total">    5.07    5.07</time>
   <energy>
    <i name="e_fr_energy">   -936.88990929 </i>
    <i name="e_wo_entrp">   -936.81777476 </i>
    <i name="e_0_energy">   -936.85384202 </i>
   </energy>
  </scstep>
  <scstep>
   <time name="diag">    0.69    0.69</time>
   <time name="diis">    3.26    3.26</time>
   <time name="orth">    0.14    0.14</time>
   <time name="total">    5.38    5.38</time>
   <energy>
    <i name="e_fr_energy">   -944.08087675 </i>
    <i name="e_wo_entrp">   -944.05001882 </i>
    <i name="e_0_energy">   -944.06544779 </i>
   </energy>
  </scstep>
  <scstep>
   <time name="diag">    0.69    0.69</time>
   <time name="diis">    3.09    3.09</time>
   <time name="orth">    0.14    0.14</time>
   <time name="total">    5.22    5.22</time>
   <energy>
    <i name="e_fr_energy">   -945.80902174 </i>
    <i name="e_wo_entrp">   -945.76630578 </i>
    <i name="e_0_energy">   -945.78766376 </i>
   </energy>
  </scstep>
  <scstep>
   <time name="diag">    0.69    0.69</time>
   <time name="diis">    3.12    3.12</time>
   <time name="orth">    0.14    0.14</time>
   <time name="total">    5.25    5.25</time>
   <energy>
    <i name="e_fr_energy">   -946.19756178 </i>
    <i name="e_wo_entrp">   -946.13817328 </i>
    <i name="e_0_energy">   -946.16786753 </i>
   </energy>
  </scstep>
  <scstep>
   <time name="diag">    0.69    0.69</time>
   <time name="diis">    3.14    3.14</time>
   <time name="orth">    0.14    0.14</time>
   <time name="total">    4.99    5.00</time>
   <energy>
    <i name="alphaZ">   2397.92104513 </i>
    <i name="ewald"> 142375.48984807 </i>
    <i name="hartreedc">-224617.96001094 </i>
    <i name="XCdc">   3548.29170649 </i>
    <i name="pawpsdc">  99354.42990815 </i>
    <i name="pawaedc"> -98552.33787651 </i>
    <i name="eentropy">     -0.06037138 </i>
    <i name="bandstr"> -13228.57331015 </i>
    <i name="atom">  87776.77885653 </i>
    <i name="e_fr_energy">   -946.02020461 </i>
    <i name="e_wo_entrp">   -945.95983323 </i>
    <i name="e_0_energy">   -945.99001892 </i>
   </energy>
  </scstep>
  <structure>
   <crystal>
    <varray name="basis" >
     <v>      15.46430000       0.00000000       0.00000000 </v>
     <v>      -7.73215000      13.39247665       0.00000000 </v>
     <v>       0.00000000       0.00000000      21.04820000 </v>
    </varray>
    <i name="volume">   4359.19328417 </i>
    <varray name="rec_basis" >
     <v>       0.06466507       0.03733439       0.00000000 </v>
     <v>       0.00000000       0.07466879       0.00000000 </v>
     <v>       0.00000000       0.00000000       0.04751000 </v>
    </varray>
   </crystal>
   <varray name="positions" >
    <v>       0.99921161       0.00233037       0.35916295 </v>
    <v>       0.16667000       0.08333000       0.20781000 </v>
    <v>       0.24404603       0.99572397       0.35727841 </v>
    <v>       0.41667000       0.08333000       0.20781000 </v>
    <v>       0.50009366       0.00213506       0.35891697 </v>
    <v>       0.66667000       0.08333000       0.20781000 </v>
    <v>       0.75832484       0.00073125       0.35770279 </v>
    <v>       0.91667000       0.08333000       0.20781000 </v>
    <v>       0.99595072       0.24757421       0.35564720 </v>
    <v>       0.16667000       0.33333000       0.20781000 </v>
    <v>       0.24899316       0.25036113       0.35985261 </v>
    <v>       0.41667000       0.33333000       0.20781000 </v>
    <v>       0.50482052       0.24817803       0.36204156 </v>
    <v>       0.66667000       0.33333000       0.20781000 </v>
    <v>       0.75414244       0.24849124       0.35790704 </v>
    <v>       0.91667000       0.33333000       0.20781000 </v>
    <v>       0.00164661       0.50016451       0.35884104 </v>
    <v>       0.16667000       0.58333000       0.20781000 </v>
    <v>       0.24201972       0.49077074       0.35721462 </v>
    <v>       0.41667000       0.58333000       0.20781000 </v>
    <v>       0.49590954       0.50019937       0.35920491 </v>
    <v>       0.66667000       0.58333000       0.20781000 </v>
    <v>       0.75625380       0.50391761       0.35965809 </v>
    <v>       0.91667000       0.58333000       0.20781000 </v>
    <v>       0.99653150       0.74650636       0.35836626 </v>
    <v>       0.16667000       0.83333000       0.20781000 </v>
    <v>       0.24596624       0.75018373       0.36155243 </v>
    <v>       0.41667000       0.83333000       0.20781000 </v>
    <v>       0.50257854       0.74614525       0.36158082 </v>
    <v>       0.66667000       0.83333000       0.20781000 </v>
    <v>       0.75104556       0.75013045       0.35862543 </v>
    <v>       0.91667000       0.83333000       0.20781000 </v>
    <v>       0.57784794       0.91286513       0.50087894 </v>
    <v>       0.33042446       0.66904279       0.50063382 </v>
    <v>       0.57784919       0.42246094       0.50184227 </v>
    <v>       0.33462841       0.17256658       0.50130763 </v>
    <v>       0.08333000       0.16667000       0.17032000 </v>
    <v>       0.16628824       0.08919977       0.31482361 </v>
    <v>       0.08969064       0.17765925       0.39531788 </v>
    <v>       0.00000000       0.00000000       0.24530000 </v>
    <v>       0.16667000       0.08333000       0.09533000 </v>
    <v>       0.20311296       0.06419105       0.51599234 </v>
    <v>       0.33333000       0.16667000       0.17032000 </v>
    <v>       0.41472180       0.09342537       0.31678688 </v>
    <v>       0.32508796       0.15442728       0.39145285 </v>
    <v>       0.25000000       0.00000000       0.24530000 </v>
    <v>       0.41667000       0.08333000       0.09533000 </v>
    <v>       0.58333000       0.16667000       0.17032000 </v>
    <v>       0.66616940       0.08079554       0.32433988 </v>
    <v>       0.58995852       0.17330977       0.38995989 </v>
    <v>       0.50000000       0.00000000       0.24530000 </v>
    <v>       0.66667000       0.08333000       0.09533000 </v>
    <v>       0.71238564       0.00819381       0.49116015 </v>
    <v>       0.83333000       0.16667000       0.17032000 </v>
    <v>       0.91531190       0.07842140       0.31596861 </v>
    <v>       0.83420972       0.16207538       0.39067780 </v>
    <v>       0.75000000       0.00000000       0.24530000 </v>
    <v>       0.91667000       0.08333000       0.09533000 </v>
    <v>       0.08333000       0.41667000       0.17032000 </v>
    <v>       0.15408401       0.32579484       0.31441097 </v>
    <v>       0.08411325       0.41820707       0.38500952 </v>
    <v>       0.00000000       0.25000000       0.24530000 </v>
    <v>       0.16667000       0.33333000       0.09533000 </v>
    <v>       0.33333000       0.41667000       0.17032000 </v>
    <v>       0.41208841       0.33870255       0.32229777 </v>
    <v>       0.32940835       0.41914305       0.38946156 </v>
    <v>       0.25000000       0.25000000       0.24530000 </v>
    <v>       0.41667000       0.33333000       0.09533000 </v>
    <v>       0.48445313       0.26990464       0.46503876 </v>
    <v>       0.58333000       0.41667000       0.17032000 </v>
    <v>       0.64854199       0.32162334       0.31508863 </v>
    <v>       0.59058644       0.42132355       0.40400579 </v>
    <v>       0.50000000       0.25000000       0.24530000 </v>
    <v>       0.66667000       0.33333000       0.09533000 </v>
    <v>       0.83333000       0.41667000       0.17032000 </v>
    <v>       0.91432934       0.34206703       0.31338109 </v>
    <v>       0.83427251       0.40818391       0.40317014 </v>
    <v>       0.75000000       0.25000000       0.24530000 </v>
    <v>       0.91667000       0.33333000       0.09533000 </v>
    <v>       0.08333000       0.66667000       0.17032000 </v>
    <v>       0.16596998       0.58155520       0.32009198 </v>
    <v>       0.08600043       0.67699028       0.39575376 </v>
    <v>       0.00000000       0.50000000       0.24530000 </v>
    <v>       0.16667000       0.58333000       0.09533000 </v>
    <v>       0.19392002       0.56311484       0.50870456 </v>
    <v>       0.33333000       0.66667000       0.17032000 </v>
    <v>       0.41421012       0.59375663       0.31992507 </v>
    <v>       0.32311485       0.65631125       0.40341940 </v>
    <v>       0.25000000       0.50000000       0.24530000 </v>
    <v>       0.41667000       0.58333000       0.09533000 </v>
    <v>       0.58333000       0.66667000       0.17032000 </v>
    <v>       0.67015194       0.58675434       0.31607258 </v>
    <v>       0.58419962       0.66843118       0.38466567 </v>
    <v>       0.50000000       0.50000000       0.24530000 </v>
    <v>       0.66667000       0.58333000       0.09533000 </v>
    <v>       0.68543521       0.55854669       0.51186457 </v>
    <v>       0.83333000       0.66667000       0.17032000 </v>
    <v>       0.92290641       0.58813265       0.31590445 </v>
    <v>       0.84029172       0.67317637       0.38782884 </v>
    <v>       0.75000000       0.50000000       0.24530000 </v>
    <v>       0.91667000       0.58333000       0.09533000 </v>
    <v>       0.08333000       0.91667000       0.17032000 </v>
    <v>       0.16371698       0.82896277       0.32100421 </v>
    <v>       0.09162878       0.92046271       0.39563254 </v>
    <v>       0.00000000       0.75000000       0.24530000 </v>
    <v>       0.16667000       0.83333000       0.09533000 </v>
    <v>       0.33333000       0.91667000       0.17032000 </v>
    <v>       0.43320455       0.83726940       0.32782880 </v>
    <v>       0.32367771       0.91314865       0.38691277 </v>
    <v>       0.25000000       0.75000000       0.24530000 </v>
    <v>       0.41667000       0.83333000       0.09533000 </v>
    <v>       0.48355114       0.77473151       0.46741106 </v>
    <v>       0.58333000       0.91667000       0.17032000 </v>
    <v>       0.67266491       0.83660003       0.32105651 </v>
    <v>       0.59818487       0.93354602       0.40461014 </v>
    <v>       0.50000000       0.75000000       0.24530000 </v>
    <v>       0.66667000       0.83333000       0.09533000 </v>
    <v>       0.83333000       0.91667000       0.17032000 </v>
    <v>       0.91653025       0.83238371       0.31407070 </v>
    <v>       0.84205022       0.92845362       0.39584406 </v>
    <v>       0.75000000       0.75000000       0.24530000 </v>
    <v>       0.91667000       0.83333000       0.09533000 </v>
    <v>       0.48207773       0.44778213       0.47815431 </v>
    <v>       0.29658887       0.76237298       0.47909381 </v>
    <v>       0.47785564       0.91947397       0.46074734 </v>
    <v>       0.53746353       0.38226098       0.57754227 </v>
    <v>       0.38815510       0.71544226       0.55603999 </v>
    <v>       0.54931445       0.89122954       0.58180310 </v>
    <v>       0.65847556       0.37119163       0.49702544 </v>
    <v>       0.38684348       0.59310131       0.49219584 </v>
    <v>       0.67640673       0.87147094       0.48913669 </v>
    <v>       0.30100868       0.26364802       0.47692672 </v>
    <v>       0.35806510       0.17758151       0.54821830 </v>
    <v>       0.38708517       0.10251877       0.48414397 </v>
    <v>       0.62724353       0.39826453       0.74333281 </v>
    <v>       0.76660458       0.32127563       0.68192320 </v>
    <v>       0.78734846       0.48656081       0.74307901 </v>
    <v>       0.25972277       0.72511880       0.75278412 </v>
    <v>       0.32152636       0.62920239       0.77063453 </v>
    <v>       0.42025841       0.59029318       0.71892310 </v>
    <v>       0.91118190       0.96484236       0.80580492 </v>
    <v>       0.47148264       0.45328588       0.60675022 </v>
    <v>       0.45132826       0.27226664       0.59864584 </v>
    <v>       0.19028532       0.41959580       0.65735710 </v>
    <v>       0.61380276       0.58449508       0.64327535 </v>
    <v>       0.58013826       0.15991466       0.55552151 </v>
    <v>       0.28097439       0.72963453       0.65847007 </v>
    <v>       0.88725258       0.23852414       0.54789570 </v>
    <v>       0.10722963       0.13609331       0.74422501 </v>
    <v>       0.21178084       0.08470408       0.66403685 </v>
    <v>       0.41430605       0.32047636       0.85146367 </v>
    <v>       0.24270102       0.92211615       0.64894618 </v>
    <v>       0.09467780       0.70735001       0.61562223 </v>
    <v>       0.57720122       0.83453297       0.80051367 </v>
    <v>       0.70978496       0.55386746       0.81384299 </v>
    <v>       0.69574595       0.48292134       0.73092162 </v>
    <v>       0.78215621       0.34763468       0.72009579 </v>
    <v>       0.83989427       0.40497789       0.70879650 </v>
    <v>       0.71127269       0.41613528       0.80048795 </v>
    <v>       0.37601828       0.29727714       0.42110626 </v>
    <v>       0.55493070       0.18981369       0.00476692 </v>
    <v>       0.23781237       0.60589130       0.71368543 </v>
    <v>       0.32904193       0.68605394       0.89776418 </v>
    <v>       0.38558015       0.82140649       0.80616818 </v>
    <v>       0.20453499       0.50090136       0.73614505 </v>
    <v>       0.55346504       0.69576048       0.70854814 </v>
    <v>       0.91059781       0.06155382       0.86842890 </v>
    <v>       0.02228822       0.08306714       0.82153654 </v>
    <v>       0.22366146       0.21440678       0.47795536 </v>
    <v>       0.52598626       0.50983045       0.57436297 </v>
    <v>       0.21941612       0.56536999       0.50000221 </v>
    <v>       0.49939664       0.37032433       0.49039234 </v>
    <v>       0.20300038       0.53366654       0.65970198 </v>
    <v>       0.27742092       0.47756892       0.61238193 </v>
    <v>       0.62110905       0.32493555       0.48238144 </v>
    <v>       0.16317555       0.19171710       0.52688817 </v>
    <v>       0.36226950       0.12658599       0.52042626 </v>
    <v>       0.60062970       0.27691991       0.52764414 </v>
    <v>       0.20590781       0.81134957       0.68074376 </v>
    <v>       0.29059426       0.70964984       0.64244660 </v>
    <v>       0.89543308       0.31392262       0.60278253 </v>
    <v>       0.93911042       0.27353173       0.56583839 </v>
    <v>       0.08499932       0.20272173       0.76436975 </v>
    <v>       0.12531945       0.19431650       0.78191493 </v>
    <v>       0.21102843       0.14838822       0.62380764 </v>
    <v>       0.45490381       0.22901232       0.75869009 </v>
    <v>       0.39536027       0.44070081       0.01807139 </v>
    <v>       0.53196339       0.27082731       0.75059670 </v>
    <v>       0.25682471       0.11842648       0.62353624 </v>
    <v>       0.26629279       0.00835708       0.64417834 </v>
    <v>       0.06682668       0.75936171       0.62023117 </v>
    <v>       0.15597588       0.72456983       0.56043141 </v>
    <v>       0.56753713       0.90023628       0.85131951 </v>
    <v>       0.57182327       0.86418483       0.83748979 </v>
   </varray>
  </structure>
  <varray name="forces" >
   <v>       0.41245389      -0.45217219      -0.87572665 </v>
   <v>      -0.09560135       0.18741599      -0.72857885 </v>
   <v>       0.35404570      -0.64448232      -0.67616339 </v>
   <v>      -0.15448547       0.51814780      -0.42699962 </v>
   <v>       0.20750873      -0.40975843      -0.11014644 </v>
   <v>      -0.04872232      -0.19183454      -0.30993528 </v>
   <v>      -1.05164332      -0.70643317       0.45705968 </v>
   <v>       0.18687101      -0.56497937      -1.07850207 </v>
   <v>       0.50126238      -0.09738519      -0.57968466 </v>
   <v>       0.32403266      -0.08037020      -1.08877533 </v>
   <v>      -1.73745779      -0.16168373      -3.32603240 </v>
   <v>      -0.12569420      -0.08841720      -1.17399978 </v>
   <v>      -0.53141437      -1.04866963      -2.77159266 </v>
   <v>      -0.35303162      -0.39712347      -0.94880157 </v>
   <v>      -0.61108791      -0.51380723      -0.37596154 </v>
   <v>      -0.07648925       0.20839625      -1.60426430 </v>
   <v>      -0.03038145       0.22071888      -0.89907077 </v>
   <v>       0.05849662       0.06661778      -0.43012936 </v>
   <v>       1.04054906       0.67465562      -1.23410598 </v>
   <v>       0.15894712       0.14556704      -1.13293896 </v>
   <v>      -0.33692370       1.14139688       0.24796159 </v>
   <v>      -0.30174081       0.32825099      -0.60731506 </v>
   <v>      -0.60510690       0.27015777      -1.22448052 </v>
   <v>       0.10726057       0.12188073      -0.91866397 </v>
   <v>       0.90529463       1.91299857      -0.98728736 </v>
   <v>      -0.05355605      -0.06618945      -0.17655136 </v>
   <v>       0.01043089       0.86836275      -0.10885640 </v>
   <v>       0.39675317      -0.14978795      -0.01771752 </v>
   <v>       0.55420498       0.86221624      -0.99147895 </v>
   <v>       0.43895869      -0.10986601      -1.58324759 </v>
   <v>      -0.64049933       0.64019956      -0.68157963 </v>
   <v>      -0.33682619       0.16029257      -0.63020550 </v>
   <v>       1.77710397      -1.03865860      -1.84154009 </v>
   <v>      -7.68189673      -4.71912429     -24.64398341 </v>
   <v>      22.35593901      20.57043373       1.54534127 </v>
   <v>    -102.25207908       8.09844966    -239.71352391 </v>
   <v>       0.10600563       0.06523086      -0.11915023 </v>
   <v>      -0.11384987      -0.48159717       1.23439203 </v>
   <v>      -0.32827592      -0.60158830       0.29698605 </v>
   <v>       0.07583065      -0.03248908       0.43589406 </v>
   <v>      -0.03264955       0.04560939       0.03956737 </v>
   <v>      -0.64908727       1.04014831      -0.64661821 </v>
   <v>       0.00895540      -0.00911795      -0.00623235 </v>
   <v>       0.90070198      -0.72569230       0.82182121 </v>
   <v>      -0.97044924       1.75400655       1.24038943 </v>
   <v>      -0.10663890      -0.39059257       0.33330783 </v>
   <v>       0.00487736      -0.00288718      -0.18218762 </v>
   <v>       0.15682807      -0.03799319       0.07215527 </v>
   <v>      -0.25383737       0.35023145      -0.62562997 </v>
   <v>       0.21693987      -0.41658516       0.76255824 </v>
   <v>      -0.14439748      -0.07473801       0.65522399 </v>
   <v>      -0.01546248       0.02039481       0.22234850 </v>
   <v>      -1.01547815       1.29554740       1.06701592 </v>
   <v>      -0.19708716       0.06407529      -0.04926346 </v>
   <v>       0.56691865       1.07483832       0.64550384 </v>
   <v>       0.21172076       1.54895316      -0.07146707 </v>
   <v>      -0.16446944       0.09294124       0.08520807 </v>
   <v>      -0.03923490       0.06313813      -0.33818077 </v>
   <v>      -0.05337964       0.11235322      -0.10519928 </v>
   <v>       0.73055857       0.51896261       1.09613885 </v>
   <v>      -0.86127555      -0.70477416       1.10889399 </v>
   <v>      -0.65358584      -0.23117261       0.52083077 </v>
   <v>       0.02799409      -0.00128188       0.00354982 </v>
   <v>      -0.14675846      -0.06216847       0.29249859 </v>
   <v>       1.07489341      -1.08835474       0.61947814 </v>
   <v>      -0.95742376      -0.58519755       0.06471448 </v>
   <v>       0.19176925       0.34830780       0.35199055 </v>
   <v>       0.08029852       0.07895630       0.17325157 </v>
   <v>      -1.11395888       0.97863900       2.22053285 </v>
   <v>       0.02079996      -0.02269314      -0.04675420 </v>
   <v>       1.84961637       2.17883383       1.10069496 </v>
   <v>       1.55245208       1.25622434      -1.32090462 </v>
   <v>      -0.58975570       0.27318332      -0.19836268 </v>
   <v>      -0.00839933       0.02047114      -0.13305791 </v>
   <v>      -0.09231970       0.10014191       0.00703598 </v>
   <v>       0.31659080      -0.59612181       1.85484159 </v>
   <v>      -0.46270297       0.78801788      -1.19411020 </v>
   <v>      -0.10812559      -0.16197936       0.81092947 </v>
   <v>      -0.00171022      -0.00263220       0.07951561 </v>
   <v>      -0.03914959      -0.02142829      -0.05556907 </v>
   <v>      -0.34860345       0.43931893       0.44726667 </v>
   <v>       0.08652141      -1.40009070       0.29958687 </v>
   <v>       0.08467455       0.38468604       0.58138053 </v>
   <v>       0.01623531      -0.00441591       0.06086629 </v>
   <v>    -307.39640536     -20.84365807     150.22127517 </v>
   <v>      -0.17791477       0.08875588       0.01917214 </v>
   <v>      -0.18371893      -1.12340048       0.05616703 </v>
   <v>      -0.28060575      -0.35965837       0.21664658 </v>
   <v>      -0.10057105      -0.16242858       0.53254012 </v>
   <v>       0.14472530      -0.02287723       0.33005557 </v>
   <v>       0.02168331      -0.20995311       0.22766233 </v>
   <v>       0.81905741      -1.37975160       0.97234819 </v>
   <v>      -0.08387796      -0.54072625       0.81359775 </v>
   <v>      -0.18604738      -0.05943037       0.33800054 </v>
   <v>      -0.03765460      -0.00839494       0.10294605 </v>
   <v>      -1.35610030      -0.66913593       0.04161802 </v>
   <v>       0.11451181      -0.12948059      -0.05899595 </v>
   <v>      -0.28196260      -1.37749958       1.47219990 </v>
   <v>       0.41950206      -1.81642933       0.91580754 </v>
   <v>       0.41885611      -0.21033352       1.27007473 </v>
   <v>      -0.00422743       0.02147249      -0.30348834 </v>
   <v>       0.09975027      -0.08960594      -0.10958200 </v>
   <v>      -0.36451909       0.06153287      -0.63990477 </v>
   <v>      -1.06584643      -0.25942789      -0.20610178 </v>
   <v>       0.12418005      -0.08437742       0.20541565 </v>
   <v>      -0.00674411       0.01050845       0.03684785 </v>
   <v>       0.03715841      -0.08007371      -0.08761063 </v>
   <v>      -1.05077366      -0.14290886      -0.46878677 </v>
   <v>       0.55385378       0.57336138      -0.05729424 </v>
   <v>       0.29775333       0.16445731       0.69647614 </v>
   <v>      -0.00021666      -0.00138661       0.19103611 </v>
   <v>       0.42812683      -0.63170836       0.62388431 </v>
   <v>      -0.05769635      -0.05118976      -0.03837604 </v>
   <v>      -0.89856596       0.37593068      -0.31663053 </v>
   <v>       1.19734010      -0.31466802      -2.25583797 </v>
   <v>       0.15512655       0.23549162      -0.16167031 </v>
   <v>      -0.54522231       0.27637643       0.86032705 </v>
   <v>       0.15688902      -0.09738142       0.30341748 </v>
   <v>       0.46282476       0.74480094       1.21841778 </v>
   <v>       1.03830825      -0.08627841       0.11381732 </v>
   <v>      -0.14159076       0.00726868      -0.20840615 </v>
   <v>      -0.02790891       0.00470047       0.03439868 </v>
   <v>      -5.34909539       2.97638546      -1.75510092 </v>
   <v>      -1.82120448      -0.32573677      -0.35142911 </v>
   <v>      -1.99052054       1.52306832       2.24136341 </v>
   <v>      -0.32941000      -2.60290959       7.22391927 </v>
   <v>      10.11387374      13.01792372      26.95301414 </v>
   <v>      -0.23485689       0.38849417       0.00136004 </v>
   <v>      16.88019415      23.89493721      15.40539574 </v>
   <v>       0.50556683      -3.05016952      -0.93203546 </v>
   <v>      -0.65349020      -1.09196254       0.14330312 </v>
   <v>      -3.75399684       2.97564352      -1.65625047 </v>
   <v>      68.01375773      22.18332589     234.43289387 </v>
   <v>       9.93086734      -9.48240439      -5.31118057 </v>
   <v>       1.36559927       1.52569961       1.34297286 </v>
   <v>       1.87947781       0.40267874      -6.75251629 </v>
   <v>      -0.43663973      -1.39024319       1.28470216 </v>
   <v>       2.01080051      -0.03378327       1.07063447 </v>
   <v>      -0.75705095      -0.72679184      -2.05257576 </v>
   <v>       0.54092647       2.64398104       0.38231155 </v>
   <v>       0.17798668       2.16159664       1.23944903 </v>
   <v>       0.60352354       4.01699752      -1.75799837 </v>
   <v>       1.71200871       3.89318036      -0.33696591 </v>
   <v>       1.40834009       5.39867659      -2.80531829 </v>
   <v>      -0.22828991      -0.14223854       0.10201377 </v>
   <v>      -1.05488886       2.49508268      -0.96280746 </v>
   <v>     -92.63162624      81.12654617     101.43061635 </v>
   <v>     -13.07637284      -6.19426459      -4.06470896 </v>
   <v>      -3.18133948       3.94592736       3.13452372 </v>
   <v>      -0.57495322       3.72969598      -4.43794534 </v>
   <v>       0.04817375      -0.00463550      -0.16535913 </v>
   <v>      -0.58220758       2.12633167       0.02262178 </v>
   <v>       0.44596662       2.76952075      -2.44450412 </v>
   <v>       0.96874742      -1.30212920      -4.98277152 </v>
   <v>      -0.13115201       0.05648807       0.10990518 </v>
   <v>       0.17318829      -1.57380712      -0.04766836 </v>
   <v>      -2.31601945      -0.78881864      10.02362937 </v>
   <v>       0.13870588       0.57344730      -3.43306668 </v>
   <v>      -0.15978780       1.03201860      -3.16595424 </v>
   <v>       0.49176299       0.51146069       0.87755290 </v>
   <v>      -0.04678086       0.00926071       0.26663509 </v>
   <v>       1.20029866      -0.28267635       0.84780486 </v>
   <v>       0.03481707       0.09842124      -0.18955302 </v>
   <v>      -0.66436065      -1.08116694      -0.83242642 </v>
   <v>       0.41344662       1.65150943      -1.29769306 </v>
   <v>      -1.99813732      -2.38097596       0.35335576 </v>
   <v>       0.89737350      -1.04414247      -1.12688653 </v>
   <v>      -1.08952833      -2.24130923      -0.88123428 </v>
   <v>      -1.85001421       0.24979505       0.95118644 </v>
   <v>      -2.06949539      -2.24474315       2.47700954 </v>
   <v>     305.79385064      15.93680978    -150.62044696 </v>
   <v>     -23.88616196     -19.89546045      -6.52595686 </v>
   <v>       0.89862624      -2.38889193       1.15600577 </v>
   <v>      -2.53390567      -2.64525250       3.34906795 </v>
   <v>      -8.54350530     -28.04883024     -16.99409154 </v>
   <v>       0.17577307      -0.44163749      -0.20486629 </v>
   <v>      31.37195333     -28.58568772      11.25378734 </v>
   <v>       1.90914270      -2.24089702       2.48356511 </v>
   <v>      -0.15340319       1.86931115      -1.92980693 </v>
   <v>      92.15442730     -81.01107231    -101.38458538 </v>
   <v>      -0.52641328      -2.80986416      -2.67011792 </v>
   <v>      13.39290124       9.01041785       6.71645080 </v>
   <v>      -2.59348655      -1.77939337      -4.20560366 </v>
   <v>       5.60744925      -1.68099815       1.50541578 </v>
   <v>      -1.37188834      -2.04007268       2.96655122 </v>
   <v>       3.08581780       1.90834370      -0.57321328 </v>
   <v>       0.14283235       0.00424556       0.51058192 </v>
   <v>      -3.43669907      -2.07340860       0.60228289 </v>
   <v>       1.88533058      -1.88111158       1.48314689 </v>
   <v>       0.62040916      -5.07338197       1.65072174 </v>
   <v>       2.90834122      -1.86808180      -1.18775692 </v>
   <v>      -3.20344606      -0.20657745       4.15691007 </v>
   <v>      -4.12452790       5.87750125       1.51704871 </v>
   <v>       3.01705919      -4.65242558       3.48227134 </v>
  </varray>
  <varray name="stress" >
   <v>      79.64473076      -9.31821896      10.64904303 </v>
   <v>      -9.31806500       8.90572955      27.69775646 </v>
   <v>      10.64906167      27.69798972     131.95626385 </v>
  </varray>
  <energy>
   <i name="e_fr_energy">   -967.88131111 </i>
   <i name="e_wo_entrp">   -967.82093973 </i>
   <i name="e_0_energy">   -967.85112542 </i>
   <i name="kinetic">  76991.54200380 </i>
   <i name="lattice kinetic">      0.00000000 </i>
   <i name="nosepot">      0.00000000 </i>
   <i name="nosekinetic">      0.00000000 </i>
   <i name="total">  76023.66069269 </i>
  </energy>
  <dos>
   <i name="efermi">     -1.50344942 </i>
   <total>
    <array>
     <dimension dim="1">gridpoints</dimension>
     <dimension dim="2">spin</dimension>
     <field>energy</field>
     <field>total</field>
     <field>integrated</field>
     <set>
      <set comment="spin 1">
       <r>   -48.9506     0.0000     0.0000 </r>
       <r>   -48.0618     0.0000     0.0000 </r>
       <r>   -47.1731     0.0000     0.0000 </r>
       <r>   -46.2843     0.0000     0.0000 </r>
       <r>   -45.3956     0.0000     0.0000 </r>
       <r>   -44.5069     0.0000     0.0000 </r>
       <r>   -43.6181     0.0000     0.0000 </r>
       <r>   -42.7294     0.0000     0.0000 </r>
       <r>   -41.8406     0.0000     0.0000 </r>
       <r>   -40.9519     0.0000     0.0000 </r>
       <r>   -40.0632     0.0000     0.0000 </r>
       <r>   -39.1744     0.0000     0.0000 </r>
       <r>   -38.2857     0.0000     0.0000 </r>
       <r>   -37.3970     0.0000     0.0000 </r>
       <r>   -36.5082     1.3981     1.2426 </r>
       <r>   -35.6195    11.1508    13.9101 </r>
       <r>   -34.7307     1.1378    31.0112 </r>
       <r>   -33.8420     0.0000    32.0000 </r>
       <r>   -32.9533     0.0000    32.0000 </r>
       <r>   -32.0645     0.0000    32.0000 </r>
       <r>   -31.1758     0.0000    32.0000 </r>
       <r>   -30.2870     0.0000    32.0000 </r>
       <r>   -29.3983     0.8223    32.7308 </r>
       <r>   -28.5096     0.0000    34.0000 </r>
       <r>   -27.6208     0.0000    34.0000 </r>
       <r>   -26.7321     1.1198    34.9952 </r>
       <r>   -25.8434     0.0001    35.0001 </r>
       <r>   -24.9546     0.0000    36.0000 </r>
       <r>   -24.0659     0.0000    37.0000 </r>
       <r>   -23.1771     1.1287    39.0031 </r>
       <r>   -22.2884     0.0000    40.0000 </r>
       <r>   -21.3997     1.9840    41.7633 </r>
       <r>   -20.5109    24.4297    71.7116 </r>
       <r>   -19.6222    17.1612   107.2518 </r>
       <r>   -18.7334    11.9059   133.5813 </r>
       <r>   -17.8447    29.3953   174.1248 </r>
       <r>   -16.9560     5.6152   195.9905 </r>
       <r>   -16.0672    14.2107   220.6296 </r>
       <r>   -15.1785    12.0600   242.7182 </r>
       <r>   -14.2897     2.2504   249.0000 </r>
       <r>   -13.4010     0.0000   249.0000 </r>
       <r>   -12.5123     1.1033   249.9806 </r>
       <r>   -11.6235     1.0013   251.8899 </r>
       <r>   -10.7348     2.2273   255.9795 </r>
       <r>    -9.8461     0.0111   256.0099 </r>
       <r>    -8.9573     3.0595   262.7191 </r>
       <r>    -8.0686     4.4929   267.9930 </r>
       <r>    -7.1798     8.4631   278.5215 </r>
       <r>    -6.2911     2.7231   286.4201 </r>
       <r>    -5.4024    22.3086   316.8265 </r>
       <r>    -4.5136    39.4919   393.0980 </r>
       <r>    -3.6249    33.3816   459.6675 </r>
       <r>    -2.7361    49.9797   549.4189 </r>
       <r>    -1.8474    11.2246   596.9758 </r>
       <r>    -0.9587     5.2445   604.6610 </r>
       <r>    -0.0699    22.3262   634.8421 </r>
       <r>     0.8188    82.3501   752.1877 </r>
       <r>     1.7075     0.0000   760.0000 </r>
       <r>     2.5963     1.1228   761.9979 </r>
       <r>     3.4850     0.0000   762.0000 </r>
       <r>     4.3738     0.0000   762.0000 </r>
       <r>     5.2625     0.0000   762.0000 </r>
       <r>     6.1512     0.0000   762.0000 </r>
       <r>     7.0400     0.0000   762.0000 </r>
       <r>     7.9287     0.0000   762.0000 </r>
       <r>     8.8175     0.0000   762.0000 </r>
       <r>     9.7062     0.0000   762.0000 </r>
       <r>    10.5949     0.0000   762.0000 </r>
       <r>    11.4837     0.0000   762.0000 </r>
       <r>    12.3724     0.0000   762.0000 </r>
       <r>    13.2612     0.0000   762.0000 </r>
       <r>    14.1499     0.0000   762.0000 </r>
       <r>    15.0386     0.0000   762.0000 </r>
       <r>    15.9274     0.0000   762.0000 </r>
       <r>    16.8161     0.0000   762.0000 </r>
       <r>    17.7048     0.0000   762.0000 </r>
       <r>    18.5936     0.0000   762.0000 </r>
       <r>    19.4823     0.0000   762.0000 </r>
       <r>    20.3711     0.0000   762.0000 </r>
       <r>    21.2598     0.0000   762.0000 </r>
       <r>    22.1485     0.0000   762.0000 </r>
       <r>    23.0373     1.1252   763.0000 </r>
       <r>    23.9260     0.0000   763.0000 </r>
       <r>    24.8148     0.0000   763.0000 </r>
       <r>    25.7035     0.0000   763.0000 </r>
       <r>    26.5922     0.0000   763.0000 </r>
       <r>    27.4810     0.0000   763.0000 </r>
       <r>    28.3697     0.0000   763.0000 </r>
       <r>    29.2584     0.0000   763.0000 </r>
       <r>    30.1472     0.0000   763.0000 </r>
       <r>    31.0359     0.0000   763.0000 </r>
       <r>    31.9247     0.0000   763.0000 </r>
       <r>    32.8134     0.0000   763.0000 </r>
       <r>    33.7021     0.0000   763.0000 </r>
       <r>    34.5909     0.0000   763.0000 </r>
       <r>    35.4796     0.0000   763.0000 </r>
       <r>    36.3684     0.0000   763.0000 </r>
       <r>    37.2571     0.0000   763.0000 </r>
       <r>    38.1458     0.0000   763.0000 </r>
       <r>    39.0346     0.0000   763.0000 </r>
       <r>    39.9233     0.0000   763.0000 </r>
       <r>    40.8120     0.0000   763.0000 </r>
       <r>    41.7008     0.0000   763.0000 </r>
       <r>    42.5895     0.0000   763.0000 </r>
       <r>    43.4783     0.0000   763.0000 </r>
       <r>    44.3670     0.0000   763.0000 </r>
       <r>    45.2557     0.0000   763.0000 </r>
       <r>    46.1445     0.0000   763.0000 </r>
       <r>    47.0332     0.0000   763.0000 </r>
       <r>    47.9220     0.0000   763.0000 </r>
       <r>    48.8107     0.0000   763.0000 </r>
       <r>    49.6994     0.0000   763.0000 </r>
       <r>    50.5882     0.0000   763.0000 </r>
       <r>    51.4769     0.0000   763.0000 </r>
       <r>    52.3657     0.0000   763.0000 </r>
       <r>    53.2544     0.0000   763.0000 </r>
       <r>    54.1431     0.0000   763.0000 </r>
       <r>    55.0319     1.1252   764.0000 </r>
       <r>    55.9206     0.0000   764.0000 </r>
       <r>    56.8093     0.0000   764.0000 </r>
       <r>    57.6981     0.0000   764.0000 </r>
       <r>    58.5868     0.0000   764.0000 </r>
       <r>    59.4756     0.0000   764.0000 </r>
       <r>    60.3643     0.0000   764.0000 </r>
       <r>    61.2530     0.0000   764.0000 </r>
       <r>    62.1418     0.0000   764.0000 </r>
       <r>    63.0305     0.0000   764.0000 </r>
       <r>    63.9193     0.0000   764.0000 </r>
       <r>    64.8080     0.0000   764.0000 </r>
       <r>    65.6967     0.0000   764.0000 </r>
       <r>    66.5855     0.0000   764.0000 </r>
       <r>    67.4742     0.0000   764.0000 </r>
       <r>    68.3629     0.0000   764.0000 </r>
       <r>    69.2517     0.0000   764.0000 </r>
       <r>    70.1404     0.0000   764.0000 </r>
       <r>    71.0292     0.0000   764.0000 </r>
       <r>    71.9179     0.0000   764.0000 </r>
       <r>    72.8066     0.0000   764.0000 </r>
       <r>    73.6954     0.0000   764.0000 </r>
       <r>    74.5841     0.0000   764.0000 </r>
       <r>    75.4729     0.0000   764.0000 </r>
       <r>    76.3616     0.0000   764.0000 </r>
       <r>    77.2503     0.0000   764.0000 </r>
       <r>    78.1391     0.0000   764.0000 </r>
       <r>    79.0278     0.0000   764.0000 </r>
       <r>    79.9166     0.0000   764.0000 </r>
       <r>    80.8053     0.0000   764.0000 </r>
       <r>    81.6940     0.0000   764.0000 </r>
       <r>    82.5828     0.0000   764.0000 </r>
       <r>    83.4715     0.0000   764.0000 </r>
       <r>    84.3602     0.0000   764.0000 </r>
       <r>    85.2490     0.0000   764.0000 </r>
       <r>    86.1377     0.0000   764.0000 </r>
       <r>    87.0265     0.0000   764.0000 </r>
       <r>    87.9152     0.0000   764.0000 </r>
       <r>    88.8039     0.0000   764.0000 </r>
       <r>    89.6927     0.0000   764.0000 </r>
       <r>    90.5814     0.0000   764.0000 </r>
       <r>    91.4702     0.0000   764.0000 </r>
       <r>    92.3589     0.0000   764.0000 </r>
       <r>    93.2476     0.0000   764.0000 </r>
       <r>    94.1364     0.0000   764.0000 </r>
       <r>    95.0251     0.0000   764.0000 </r>
       <r>    95.9138     0.0000   764.0000 </r>
       <r>    96.8026     0.0000   764.0000 </r>
       <r>    97.6913     0.0000   764.0000 </r>
       <r>    98.5801     0.0000   764.0000 </r>
       <r>    99.4688     0.0000   764.0000 </r>
       <r>   100.3575     0.0000   764.0000 </r>
       <r>   101.2463     0.0000   764.0000 </r>
       <r>   102.1350     0.0000   764.0000 </r>
       <r>   103.0238     0.0000   764.0000 </r>
       <r>   103.9125     0.0000   764.0000 </r>
       <r>   104.8012     0.0000   764.0000 </r>
       <r>   105.6900     0.0000   764.0000 </r>
       <r>   106.5787     0.0000   764.0000 </r>
       <r>   107.4675     0.0000   764.0000 </r>
       <r>   108.3562     0.0000   764.0000 </r>
       <r>   109.2449     0.0000   764.0000 </r>
       <r>   110.1337     0.0000   764.0000 </r>
       <r>   111.0224     0.0000   764.0000 </r>
       <r>   111.9111     0.0000   764.0000 </r>
       <r>   112.7999     0.0000   764.0000 </r>
       <r>   113.6886     0.0000   764.0000 </r>
       <r>   114.5774     0.0000   764.0000 </r>
       <r>   115.4661     0.0000   764.0000 </r>
       <r>   116.3548     0.0000   764.0000 </r>
       <r>   117.2436     0.0000   764.0000 </r>
       <r>   118.1323     0.0000   764.0000 </r>
       <r>   119.0211     0.0000   764.0000 </r>
       <r>   119.9098     0.0000   764.0000 </r>
       <r>   120.7985     0.0000   764.0000 </r>
       <r>   121.6873     0.0000   764.0000 </r>
       <r>   122.5760     0.0000   764.0000 </r>
       <r>   123.4647     0.0000   764.0000 </r>
       <r>   124.3535     0.0000   764.0000 </r>
       <r>   125.2422     0.0000   764.0000 </r>
       <r>   126.1310     0.0000   764.0000 </r>
       <r>   127.0197     0.0000   764.0000 </r>
       <r>   127.9084     0.0000   764.0000 </r>
       <r>   128.7972     0.0000   764.0000 </r>
       <r>   129.6859     0.0000   764.0000 </r>
       <r>   130.5747     0.0000   764.0000 </r>
       <r>   131.4634     0.0000   764.0000 </r>
       <r>   132.3521     0.0000   764.0000 </r>
       <r>   133.2409     0.0000   764.0000 </r>
       <r>   134.1296     0.0000   764.0000 </r>
       <r>   135.0184     0.0000   764.0000 </r>
       <r>   135.9071     0.0000   764.0000 </r>
       <r>   136.7958     0.0000   764.0000 </r>
       <r>   137.6846     0.0000   764.0000 </r>
       <r>   138.5733     0.0000   764.0000 </r>
       <r>   139.4620     0.0000   764.0000 </r>
       <r>   140.3508     0.0000   764.0000 </r>
       <r>   141.2395     0.0000   764.0000 </r>
       <r>   142.1283     0.0000   764.0000 </r>
       <r>   143.0170     0.0000   764.0000 </r>
       <r>   143.9057     0.0000   764.0000 </r>
       <r>   144.7945     0.0000   764.0000 </r>
       <r>   145.6832     0.0000   764.0000 </r>
       <r>   146.5720     0.0000   764.0000 </r>
       <r>   147.4607     0.0000   764.0000 </r>
       <r>   148.3494     0.0000   764.0000 </r>
       <r>   149.2382     0.0000   764.0000 </r>
       <r>   150.1269     0.0000   764.0000 </r>
       <r>   151.0156     0.0000   764.0000 </r>
       <r>   151.9044     0.0000   764.0000 </r>
       <r>   152.7931     0.0000   764.0000 </r>
       <r>   153.6819     0.0000   764.0000 </r>
       <r>   154.5706     0.0000   764.0000 </r>
       <r>   155.4593     0.0000   764.0000 </r>
       <r>   156.3481     0.0000   764.0000 </r>
       <r>   157.2368     0.0000   764.0000 </r>
       <r>   158.1256     0.0000   764.0000 </r>
       <r>   159.0143     0.0000   764.0000 </r>
       <r>   159.9030     0.0000   764.0000 </r>
       <r>   160.7918     0.0000   764.0000 </r>
       <r>   161.6805     0.0000   764.0000 </r>
       <r>   162.5693     0.0000   764.0000 </r>
       <r>   163.4580     0.0000   764.0000 </r>
       <r>   164.3467     0.0000   764.0000 </r>
       <r>   165.2355     0.0000   764.0000 </r>
       <r>   166.1242     0.0000   764.0000 </r>
       <r>   167.0129     0.0000   764.0000 </r>
       <r>   167.9017     0.0000   764.0000 </r>
       <r>   168.7904     0.0000   764.0000 </r>
       <r>   169.6792     0.0000   764.0000 </r>
       <r>   170.5679     0.0000   764.0000 </r>
       <r>   171.4566     0.0000   764.0000 </r>
       <r>   172.3454     0.0000   764.0000 </r>
       <r>   173.2341     0.0000   764.0000 </r>
       <r>   174.1229     0.0000   764.0000 </r>
       <r>   175.0116     0.0000   764.0000 </r>
       <r>   175.9003     0.0000   764.0000 </r>
       <r>   176.7891     0.0000   764.0000 </r>
       <r>   177.6778     0.0000   764.0000 </r>
       <r>   178.5665     0.0000   764.0000 </r>
       <r>   179.4553     0.0000   764.0000 </r>
       <r>   180.3440     0.0000   764.0000 </r>
       <r>   181.2328     0.0000   764.0000 </r>
       <r>   182.1215     0.0000   764.0000 </r>
       <r>   183.0102     0.0000   764.0000 </r>
       <r>   183.8990     0.0000   764.0000 </r>
       <r>   184.7877     0.0000   764.0000 </r>
       <r>   185.6765     0.0000   764.0000 </r>
       <r>   186.5652     0.0000   764.0000 </r>
       <r>   187.4539     0.0000   764.0000 </r>
       <r>   188.3427     0.0000   764.0000 </r>
       <r>   189.2314     0.0000   764.0000 </r>
       <r>   190.1202     0.0000   764.0000 </r>
       <r>   191.0089     0.0000   764.0000 </r>
       <r>   191.8976     0.0000   764.0000 </r>
       <r>   192.7864     1.1252   765.0000 </r>
       <r>   193.6751     0.0000   766.0000 </r>
       <r>   194.5638     0.0000   766.0000 </r>
       <r>   195.4526     0.0000   766.0000 </r>
       <r>   196.3413     0.0000   766.0000 </r>
       <r>   197.2301     0.0000   767.0000 </r>
       <r>   198.1188     0.0000   767.0000 </r>
       <r>   199.0075     0.0000   767.0000 </r>
       <r>   199.8963     0.0000   767.0000 </r>
       <r>   200.7850     0.0000   767.0000 </r>
       <r>   201.6738     0.0000   767.0000 </r>
       <r>   202.5625     0.0000   767.0000 </r>
       <r>   203.4512     0.0000   767.0000 </r>
       <r>   204.3400     0.0000   767.0000 </r>
       <r>   205.2287     0.9331   767.8293 </r>
       <r>   206.1174     0.0000   768.0000 </r>
       <r>   207.0062     0.0000   768.0000 </r>
       <r>   207.8949     0.0000   768.0000 </r>
       <r>   208.7837     0.0000   768.0000 </r>
       <r>   209.6724     0.0000   768.0000 </r>
       <r>   210.5611     0.0000   768.0000 </r>
       <r>   211.4499     0.0000   768.0000 </r>
       <r>   212.3386     0.0000   768.0000 </r>
       <r>   213.2274     0.0000   768.0000 </r>
       <r>   214.1161     0.0000   768.0000 </r>
       <r>   215.0048     0.0000   768.0000 </r>
       <r>   215.8936     0.0000   768.0000 </r>
       <r>   216.7823     0.0000   768.0000 </r>
       <r>   217.6710     0.0000   768.0000 </r>
      </set>
      <set comment="spin 2">
       <r>   -48.9506     0.0000     0.0000 </r>
       <r>   -48.0618     0.0000     0.0000 </r>
       <r>   -47.1731     0.0000     0.0000 </r>
       <r>   -46.2843     0.0000     0.0000 </r>
       <r>   -45.3956     0.0000     0.0000 </r>
       <r>   -44.5069     0.0000     0.0000 </r>
       <r>   -43.6181     0.0000     0.0000 </r>
       <r>   -42.7294     0.0000     0.0000 </r>
       <r>   -41.8406     0.0000     0.0000 </r>
       <r>   -40.9519     0.0000     0.0000 </r>
       <r>   -40.0632     0.0000     0.0000 </r>
       <r>   -39.1744     0.0000     0.0000 </r>
       <r>   -38.2857     0.0000     0.0000 </r>
       <r>   -37.3970     0.0000     0.0000 </r>
       <r>   -36.5082     1.3617     1.2102 </r>
       <r>   -35.6195    12.1872    14.8313 </r>
       <r>   -34.7307     0.0000    31.0000 </r>
       <r>   -33.8420     0.0000    32.0000 </r>
       <r>   -32.9533     0.0000    32.0000 </r>
       <r>   -32.0645     0.0000    32.0000 </r>
       <r>   -31.1758     0.0000    32.0000 </r>
       <r>   -30.2870     0.0000    32.0000 </r>
       <r>   -29.3983     0.9939    32.8833 </r>
       <r>   -28.5096     0.0000    34.0000 </r>
       <r>   -27.6208     0.0000    34.0000 </r>
       <r>   -26.7321     1.1173    34.9929 </r>
       <r>   -25.8434     0.0000    35.0000 </r>
       <r>   -24.9546     0.0000    36.0000 </r>
       <r>   -24.0659     1.1252    38.0000 </r>
       <r>   -23.1771     1.1249    38.9997 </r>
       <r>   -22.2884     0.0000    40.0000 </r>
       <r>   -21.3997     1.9853    41.7644 </r>
       <r>   -20.5109    19.8389    67.6316 </r>
       <r>   -19.6222     9.9226    92.8186 </r>
       <r>   -18.7334    11.8294   119.5132 </r>
       <r>   -17.8447    23.9483   162.2838 </r>
       <r>   -16.9560     8.5448   181.5941 </r>
       <r>   -16.0672    15.8324   209.0709 </r>
       <r>   -15.1785    21.7336   241.3155 </r>
       <r>   -14.2897     3.3756   249.0000 </r>
       <r>   -13.4010     0.0000   249.0000 </r>
       <r>   -12.5123     0.2069   249.1839 </r>
       <r>   -11.6235     2.4419   252.1702 </r>
       <r>   -10.7348     2.2503   256.0000 </r>
       <r>    -9.8461     0.0023   256.0020 </r>
       <r>    -8.9573     2.3150   262.0574 </r>
       <r>    -8.0686     4.1183   268.6601 </r>
       <r>    -7.1798     5.5013   277.8892 </r>
       <r>    -6.2911     1.4840   286.3189 </r>
       <r>    -5.4024    13.6281   306.1118 </r>
       <r>    -4.5136    33.4476   364.7262 </r>
       <r>    -3.6249    27.6658   415.5876 </r>
       <r>    -2.7361    44.5158   495.5629 </r>
       <r>    -1.8474    18.0704   561.0599 </r>
       <r>    -0.9587    32.7142   608.0744 </r>
       <r>    -0.0699    19.7183   634.5244 </r>
       <r>     0.8188    76.5097   746.9971 </r>
       <r>     1.7075     3.3756   757.0000 </r>
       <r>     2.5963     1.1258   759.0005 </r>
       <r>     3.4850     0.0000   760.0000 </r>
       <r>     4.3738     0.0000   760.0000 </r>
       <r>     5.2625     0.0000   760.0000 </r>
       <r>     6.1512     0.0000   760.0000 </r>
       <r>     7.0400     0.0000   760.0000 </r>
       <r>     7.9287     0.0000   760.0000 </r>
       <r>     8.8175     0.0000   760.0000 </r>
       <r>     9.7062     0.0000   760.0000 </r>
       <r>    10.5949     0.0000   760.0000 </r>
       <r>    11.4837     0.0000   760.0000 </r>
       <r>    12.3724     0.0000   760.0000 </r>
       <r>    13.2612     0.0000   760.0000 </r>
       <r>    14.1499     0.0000   760.0000 </r>
       <r>    15.0386     0.0000   760.0000 </r>
       <r>    15.9274     0.0000   760.0000 </r>
       <r>    16.8161     0.0000   760.0000 </r>
       <r>    17.7048     0.0000   760.0000 </r>
       <r>    18.5936     0.0000   760.0000 </r>
       <r>    19.4823     0.0000   760.0000 </r>
       <r>    20.3711     0.0000   760.0000 </r>
       <r>    21.2598     0.0000   760.0000 </r>
       <r>    22.1485     0.0000   760.0000 </r>
       <r>    23.0373     0.0000   760.0000 </r>
       <r>    23.9260     0.0000   760.0000 </r>
       <r>    24.8148     0.0000   760.0000 </r>
       <r>    25.7035     0.0000   760.0000 </r>
       <r>    26.5922     0.0000   760.0000 </r>
       <r>    27.4810     0.0000   760.0000 </r>
       <r>    28.3697     0.0000   760.0000 </r>
       <r>    29.2584     0.0000   760.0000 </r>
       <r>    30.1472     0.0000   760.0000 </r>
       <r>    31.0359     0.0000   760.0000 </r>
       <r>    31.9247     0.0000   760.0000 </r>
       <r>    32.8134     0.0000   760.0000 </r>
       <r>    33.7021     0.0000   760.0000 </r>
       <r>    34.5909     0.0000   760.0000 </r>
       <r>    35.4796     0.0000   760.0000 </r>
       <r>    36.3684     0.0000   760.0000 </r>
       <r>    37.2571     0.0000   760.0000 </r>
       <r>    38.1458     0.0000   760.0000 </r>
       <r>    39.0346     0.0000   760.0000 </r>
       <r>    39.9233     0.0000   760.0000 </r>
       <r>    40.8120     0.0000   760.0000 </r>
       <r>    41.7008     0.0000   760.0000 </r>
       <r>    42.5895     0.0000   760.0000 </r>
       <r>    43.4783     0.0000   760.0000 </r>
       <r>    44.3670     0.0000   760.0000 </r>
       <r>    45.2557     0.0000   760.0000 </r>
       <r>    46.1445     0.0000   760.0000 </r>
       <r>    47.0332     0.0000   760.0000 </r>
       <r>    47.9220     0.0000   760.0000 </r>
       <r>    48.8107     0.0000   760.0000 </r>
       <r>    49.6994     0.0000   760.0000 </r>
       <r>    50.5882     0.0000   760.0000 </r>
       <r>    51.4769     0.0000   760.0000 </r>
       <r>    52.3657     0.0000   760.0000 </r>
       <r>    53.2544     0.0000   760.0000 </r>
       <r>    54.1431     0.0000   760.0000 </r>
       <r>    55.0319     0.0000   760.0000 </r>
       <r>    55.9206     0.0000   760.0000 </r>
       <r>    56.8093     0.0000   760.0000 </r>
       <r>    57.6981     0.0000   760.0000 </r>
       <r>    58.5868     0.0000   760.0000 </r>
       <r>    59.4756     0.0000   760.0000 </r>
       <r>    60.3643     0.0000   760.0000 </r>
       <r>    61.2530     0.0000   760.0000 </r>
       <r>    62.1418     0.0000   760.0000 </r>
       <r>    63.0305     0.0000   760.0000 </r>
       <r>    63.9193     0.0000   760.0000 </r>
       <r>    64.8080     0.0000   760.0000 </r>
       <r>    65.6967     0.0000   760.0000 </r>
       <r>    66.5855     0.0000   760.0000 </r>
       <r>    67.4742     0.0000   760.0000 </r>
       <r>    68.3629     0.0000   760.0000 </r>
       <r>    69.2517     0.0000   760.0000 </r>
       <r>    70.1404     0.0000   760.0000 </r>
       <r>    71.0292     0.0000   760.0000 </r>
       <r>    71.9179     0.0000   760.0000 </r>
       <r>    72.8066     0.0000   760.0000 </r>
       <r>    73.6954     0.0000   760.0000 </r>
       <r>    74.5841     0.0000   760.0000 </r>
       <r>    75.4729     0.0000   760.0000 </r>
       <r>    76.3616     0.0000   760.0000 </r>
       <r>    77.2503     0.0000   760.0000 </r>
       <r>    78.1391     0.0000   760.0000 </r>
       <r>    79.0278     0.0000   760.0000 </r>
       <r>    79.9166     0.0000   760.0000 </r>
       <r>    80.8053     0.0000   760.0000 </r>
       <r>    81.6940     0.0000   760.0000 </r>
       <r>    82.5828     0.0000   760.0000 </r>
       <r>    83.4715     0.0000   760.0000 </r>
       <r>    84.3602     0.0000   760.0000 </r>
       <r>    85.2490     0.0000   760.0000 </r>
       <r>    86.1377     0.0000   760.0000 </r>
       <r>    87.0265     0.0000   760.0000 </r>
       <r>    87.9152     0.0000   760.0000 </r>
       <r>    88.8039     0.0000   760.0000 </r>
       <r>    89.6927     0.0000   760.0000 </r>
       <r>    90.5814     0.0000   760.0000 </r>
       <r>    91.4702     0.0000   760.0000 </r>
       <r>    92.3589     0.0000   760.0000 </r>
       <r>    93.2476     0.0000   760.0000 </r>
       <r>    94.1364     0.0000   760.0000 </r>
       <r>    95.0251     0.0000   760.0000 </r>
       <r>    95.9138     0.0000   760.0000 </r>
       <r>    96.8026     0.0000   760.0000 </r>
       <r>    97.6913     0.0000   760.0000 </r>
       <r>    98.5801     0.0000   760.0000 </r>
       <r>    99.4688     0.0000   760.0000 </r>
       <r>   100.3575     0.0000   760.0000 </r>
       <r>   101.2463     0.0000   760.0000 </r>
       <r>   102.1350     0.0000   760.0000 </r>
       <r>   103.0238     0.0000   760.0000 </r>
       <r>   103.9125     0.0000   760.0000 </r>
       <r>   104.8012     0.0000   760.0000 </r>
       <r>   105.6900     0.0000   760.0000 </r>
       <r>   106.5787     0.0000   760.0000 </r>
       <r>   107.4675     0.0000   760.0000 </r>
       <r>   108.3562     0.0000   760.0000 </r>
       <r>   109.2449     0.0000   760.0000 </r>
       <r>   110.1337     0.0000   760.0000 </r>
       <r>   111.0224     0.0000   760.0000 </r>
       <r>   111.9111     0.0000   760.0000 </r>
       <r>   112.7999     0.0000   760.0000 </r>
       <r>   113.6886     0.0000   760.0000 </r>
       <r>   114.5774     0.0000   760.0000 </r>
       <r>   115.4661     0.0000   760.0000 </r>
       <r>   116.3548     0.0000   760.0000 </r>
       <r>   117.2436     0.0000   760.0000 </r>
       <r>   118.1323     0.0000   760.0000 </r>
       <r>   119.0211     0.0000   760.0000 </r>
       <r>   119.9098     0.0000   760.0000 </r>
       <r>   120.7985     0.0000   760.0000 </r>
       <r>   121.6873     0.0000   760.0000 </r>
       <r>   122.5760     0.0000   760.0000 </r>
       <r>   123.4647     0.0000   760.0000 </r>
       <r>   124.3535     0.0000   760.0000 </r>
       <r>   125.2422     0.0000   760.0000 </r>
       <r>   126.1310     0.0000   760.0000 </r>
       <r>   127.0197     0.0000   760.0000 </r>
       <r>   127.9084     0.0000   760.0000 </r>
       <r>   128.7972     0.0000   760.0000 </r>
       <r>   129.6859     0.0000   760.0000 </r>
       <r>   130.5747     0.0000   760.0000 </r>
       <r>   131.4634     0.0000   760.0000 </r>
       <r>   132.3521     0.0000   760.0000 </r>
       <r>   133.2409     0.0000   760.0000 </r>
       <r>   134.1296     0.0000   760.0000 </r>
       <r>   135.0184     0.0000   760.0000 </r>
       <r>   135.9071     0.0000   760.0000 </r>
       <r>   136.7958     0.0000   760.0000 </r>
       <r>   137.6846     0.0000   760.0000 </r>
       <r>   138.5733     0.0000   760.0000 </r>
       <r>   139.4620     0.0000   760.0000 </r>
       <r>   140.3508     0.0000   760.0000 </r>
       <r>   141.2395     0.0000   760.0000 </r>
       <r>   142.1283     0.0000   760.0000 </r>
       <r>   143.0170     0.0000   760.0000 </r>
       <r>   143.9057     0.0000   760.0000 </r>
       <r>   144.7945     0.0000   760.0000 </r>
       <r>   145.6832     0.0000   760.0000 </r>
       <r>   146.5720     0.0000   760.0000 </r>
       <r>   147.4607     0.0000   760.0000 </r>
       <r>   148.3494     0.0000   760.0000 </r>
       <r>   149.2382     0.0000   760.0000 </r>
       <r>   150.1269     0.0000   760.0000 </r>
       <r>   151.0156     0.0000   760.0000 </r>
       <r>   151.9044     0.0000   760.0000 </r>
       <r>   152.7931     0.0000   760.0000 </r>
       <r>   153.6819     0.0000   760.0000 </r>
       <r>   154.5706     0.0000   760.0000 </r>
       <r>   155.4593     0.0000   760.0000 </r>
       <r>   156.3481     0.0000   760.0000 </r>
       <r>   157.2368     0.0000   760.0000 </r>
       <r>   158.1256     0.0000   760.0000 </r>
       <r>   159.0143     0.0000   760.0000 </r>
       <r>   159.9030     0.0000   760.0000 </r>
       <r>   160.7918     0.0000   760.0000 </r>
       <r>   161.6805     0.0000   760.0000 </r>
       <r>   162.5693     0.0000   760.0000 </r>
       <r>   163.4580     0.0000   760.0000 </r>
       <r>   164.3467     0.0000   760.0000 </r>
       <r>   165.2355     0.0000   760.0000 </r>
       <r>   166.1242     0.0000   760.0000 </r>
       <r>   167.0129     0.0000   760.0000 </r>
       <r>   167.9017     0.0000   760.0000 </r>
       <r>   168.7904     0.0000   760.0000 </r>
       <r>   169.6792     0.0000   760.0000 </r>
       <r>   170.5679     0.0000   760.0000 </r>
       <r>   171.4566     0.0000   760.0000 </r>
       <r>   172.3454     0.0000   760.0000 </r>
       <r>   173.2341     0.0000   760.0000 </r>
       <r>   174.1229     0.0000   760.0000 </r>
       <r>   175.0116     0.0000   760.0000 </r>
       <r>   175.9003     0.0000   760.0000 </r>
       <r>   176.7891     0.0000   760.0000 </r>
       <r>   177.6778     0.0000   760.0000 </r>
       <r>   178.5665     0.0000   760.0000 </r>
       <r>   179.4553     0.0000   760.0000 </r>
       <r>   180.3440     0.0000   760.0000 </r>
       <r>   181.2328     0.0000   760.0000 </r>
       <r>   182.1215     0.0000   760.0000 </r>
       <r>   183.0102     0.0000   761.0000 </r>
       <r>   183.8990     0.0000   761.0000 </r>
       <r>   184.7877     1.1252   762.0000 </r>
       <r>   185.6765     0.0000   762.0000 </r>
       <r>   186.5652     0.0000   762.0000 </r>
       <r>   187.4539     0.0000   762.0000 </r>
       <r>   188.3427     1.1236   762.9985 </r>
       <r>   189.2314     0.0000   764.0000 </r>
       <r>   190.1202     0.0000   764.0000 </r>
       <r>   191.0089     0.0000   764.0000 </r>
       <r>   191.8976     0.0000   764.0000 </r>
       <r>   192.7864     0.0000   764.0000 </r>
       <r>   193.6751     0.0000   764.0000 </r>
       <r>   194.5638     0.0000   765.0000 </r>
       <r>   195.4526     0.0000   765.0000 </r>
       <r>   196.3413     0.0000   765.0000 </r>
       <r>   197.2301     0.0036   765.0032 </r>
       <r>   198.1188     0.0000   766.0000 </r>
       <r>   199.0075     0.0000   766.0000 </r>
       <r>   199.8963     0.0000   767.0000 </r>
       <r>   200.7850     0.0000   767.0000 </r>
       <r>   201.6738     0.0000   767.0000 </r>
       <r>   202.5625     0.0000   767.0000 </r>
       <r>   203.4512     0.0000   767.0000 </r>
       <r>   204.3400     0.0000   767.0000 </r>
       <r>   205.2287     0.0000   767.0000 </r>
       <r>   206.1174     0.0000   768.0000 </r>
       <r>   207.0062     0.0000   768.0000 </r>
       <r>   207.8949     0.0000   768.0000 </r>
       <r>   208.7837     0.0000   768.0000 </r>
       <r>   209.6724     0.0000   768.0000 </r>
       <r>   210.5611     0.0000   768.0000 </r>
       <r>   211.4499     0.0000   768.0000 </r>
       <r>   212.3386     0.0000   768.0000 </r>
       <r>   213.2274     0.0000   768.0000 </r>
       <r>   214.1161     0.0000   768.0000 </r>
       <r>   215.0048     0.0000   768.0000 </r>
       <r>   215.8936     0.0000   768.0000 </r>
       <r>   216.7823     0.0000   768.0000 </r>
       <r>   217.6710     0.0000   768.0000 </r>
      </set>
     </set>
    </array>
   </total>
  </dos>
