unknown system                          
           1
    15.464300    0.000000    0.000000
    -7.732150   13.392477    0.000000
     0.000000    0.000000   21.048200
   Ce   Ir   O    H 
    32     4   118    40
Direct configuration=     1
   0.00091000  0.99975000  0.35854000
   0.16667000  0.08333000  0.20781000
   0.24517000  0.99517000  0.35738000
   0.41667000  0.08333000  0.20781000
   0.49705000  0.00169000  0.36006000
   0.66667000  0.08333000  0.20781000
   0.75659000  0.00320000  0.35806000
   0.91667000  0.08333000  0.20781000
   0.99923000  0.24978000  0.35837000
   0.16667000  0.33333000  0.20781000
   0.24733000  0.25134000  0.36064000
   0.41667000  0.33333000  0.20781000
   0.50295000  0.24840000  0.36204000
   0.66667000  0.33333000  0.20781000
   0.75101000  0.24968000  0.35809000
   0.91667000  0.33333000  0.20781000
   0.00103000  0.49979000  0.35853000
   0.16667000  0.58333000  0.20781000
   0.24493000  0.49460000  0.35728000
   0.41667000  0.58333000  0.20781000
   0.49687000  0.50186000  0.35988000
   0.66667000  0.58333000  0.20781000
   0.75701000  0.50333000  0.35797000
   0.91667000  0.58333000  0.20781000
   0.99919000  0.74994000  0.35832000
   0.16667000  0.83333000  0.20781000
   0.24701000  0.75158000  0.36037000
   0.41667000  0.83333000  0.20781000
   0.50311000  0.74875000  0.36208000
   0.66667000  0.83333000  0.20781000
   0.75090000  0.74973000  0.35813000
   0.91667000  0.83333000  0.20781000
   0.57959000  0.91854000  0.50140000
   0.32998000  0.67086000  0.50177000
   0.57831000  0.42146000  0.50220000
   0.33332000  0.16933000  0.50096000
   0.08333000  0.16667000  0.17032000
   0.16689000  0.08376000  0.32028000
   0.08317000  0.16681000  0.39582000
   0.00000000  0.00000000  0.24530000
   0.16667000  0.08333000  0.09533000
   0.20923000  0.06896000  0.50369000
   0.33333000  0.16667000  0.17032000
   0.41701000  0.08682000  0.32116000
   0.32499000  0.15778000  0.39892000
   0.25000000  0.00000000  0.24530000
   0.41667000  0.08333000  0.09533000
   0.58333000  0.16667000  0.17032000
   0.66725000  0.08225000  0.32016000
   0.58591000  0.16578000  0.39351000
   0.50000000  0.00000000  0.24530000
   0.66667000  0.08333000  0.09533000
   0.67875000  0.04287000  0.50554000
   0.83333000  0.16667000  0.17032000
   0.91831000  0.08407000  0.31961000
   0.83578000  0.16791000  0.39472000
   0.75000000  0.00000000  0.24530000
   0.91667000  0.08333000  0.09533000
   0.08333000  0.41667000  0.17032000
   0.16285000  0.33056000  0.31920000
   0.08110000  0.41433000  0.39479000
   0.00000000  0.25000000  0.24530000
   0.16667000  0.33333000  0.09533000
   0.33333000  0.41667000  0.17032000
   0.42027000  0.33246000  0.32494000
   0.32743000  0.41704000  0.38879000
   0.25000000  0.25000000  0.24530000
   0.41667000  0.33333000  0.09533000
   0.47610000  0.27461000  0.47158000
   0.58333000  0.41667000  0.17032000
   0.66649000  0.33525000  0.32182000
   0.59483000  0.42741000  0.40172000
   0.50000000  0.25000000  0.24530000
   0.66667000  0.33333000  0.09533000
   0.83333000  0.41667000  0.17032000
   0.91616000  0.33290000  0.31951000
   0.83760000  0.41856000  0.39430000
   0.75000000  0.25000000  0.24530000
   0.91667000  0.33333000  0.09533000
   0.08333000  0.66667000  0.17032000
   0.16717000  0.58384000  0.32030000
   0.08288000  0.66675000  0.39579000
   0.00000000  0.50000000  0.24530000
   0.16667000  0.58333000  0.09533000
   0.20575000  0.57219000  0.50785000
   0.33333000  0.66667000  0.17032000
   0.41635000  0.58690000  0.32140000
   0.32333000  0.65643000  0.40090000
   0.25000000  0.50000000  0.24530000
   0.41667000  0.58333000  0.09533000
   0.58333000  0.66667000  0.17032000
   0.66699000  0.58173000  0.32029000
   0.58541000  0.66550000  0.39346000
   0.50000000  0.50000000  0.24530000
   0.66667000  0.58333000  0.09533000
   0.67520000  0.54612000  0.50952000
   0.83333000  0.66667000  0.17032000
   0.91835000  0.58411000  0.31962000
   0.83545000  0.66771000  0.39488000
   0.75000000  0.50000000  0.24530000
   0.91667000  0.58333000  0.09533000
   0.08333000  0.91667000  0.17032000
   0.16288000  0.83070000  0.31919000
   0.08084000  0.91411000  0.39451000
   0.00000000  0.75000000  0.24530000
   0.16667000  0.83333000  0.09533000
   0.33333000  0.91667000  0.17032000
   0.41918000  0.83126000  0.32496000
   0.32792000  0.91746000  0.38854000
   0.25000000  0.75000000  0.24530000
   0.41667000  0.83333000  0.09533000
   0.47573000  0.77475000  0.47149000
   0.58333000  0.91667000  0.17032000
   0.66673000  0.83482000  0.32171000
   0.59388000  0.92605000  0.39983000
   0.50000000  0.75000000  0.24530000
   0.66667000  0.83333000  0.09533000
   0.83333000  0.91667000  0.17032000
   0.91590000  0.83265000  0.31948000
   0.83757000  0.91845000  0.39429000
   0.75000000  0.75000000  0.24530000
   0.91667000  0.83333000  0.09533000
   0.48571000  0.45179000  0.47583000
   0.29760000  0.76277000  0.47702000
   0.48738000  0.95074000  0.47709000
   0.53345000  0.38379000  0.57900000
   0.36614000  0.71298000  0.57922000
   0.54056000  0.88522000  0.57961000
   0.65773000  0.37041000  0.49314000
   0.38270000  0.59325000  0.49106000
   0.65717000  0.86563000  0.49029000
   0.29950000  0.26118000  0.47866000
   0.36536000  0.20475000  0.57981000
   0.38730000  0.09321000  0.48767000
   0.61857000  0.39899000  0.74396000
   0.76885000  0.31913000  0.67741000
   0.91724000  0.54832000  0.74396000
   0.06658000  0.62299000  0.74396000
   0.31808000  0.64770000  0.74991000
   0.41816000  0.55574000  0.69015000
   0.79924000  0.81594000  0.73728000
   0.45788000  0.47226000  0.61851000
   0.40447000  0.26561000  0.65931000
   0.19622000  0.42436000  0.65152000
   0.71684000  0.70508000  0.69015000
   0.57918000  0.08502000  0.52292000
   0.30050000  0.71362000  0.65931000
   0.88746000  0.24043000  0.54659000
   0.11194000  0.14567000  0.74396000
   0.26153000  0.11894000  0.65561000
   0.41062000  0.29501000  0.74396000
   0.24158000  0.94704000  0.65152000
   0.08833000  0.69734000  0.61660000
   0.58048000  0.84072000  0.80643000
   0.59569000  0.42955000  0.77493000
   0.69108000  0.43807000  0.74665000
   0.74597000  0.34970000  0.70838000
   0.84136000  0.35822000  0.68010000
   0.89437000  0.57889000  0.77493000
   0.98976000  0.58741000  0.74665000
   0.04371000  0.65356000  0.77493000
   0.13910000  0.66208000  0.74665000
   0.29521000  0.67827000  0.78088000
   0.39060000  0.68678000  0.75260000
   0.39528000  0.58631000  0.72112000
   0.49067000  0.59483000  0.69284000
   0.77636000  0.84651000  0.76825000
   0.87175000  0.85502000  0.73997000
   0.43500000  0.50282000  0.64948000
   0.53039000  0.51134000  0.62119000
   0.38160000  0.29618000  0.69028000
   0.47698000  0.30470000  0.66200000
   0.17334000  0.45493000  0.68249000
   0.26873000  0.46345000  0.65421000
   0.69396000  0.73565000  0.72112000
   0.78935000  0.74416000  0.69284000
   0.55631000  0.11559000  0.55389000
   0.65170000  0.12411000  0.52561000
   0.27762000  0.74419000  0.69028000
   0.37301000  0.75271000  0.66200000
   0.86459000  0.27100000  0.57755000
   0.95998000  0.27952000  0.54927000
   0.08907000  0.17624000  0.77493000
   0.18446000  0.18476000  0.74665000
   0.23865000  0.14951000  0.68658000
   0.33404000  0.15803000  0.65830000
   0.38774000  0.32558000  0.77493000
   0.48313000  0.33409000  0.74665000
   0.21870000  0.97761000  0.68249000
   0.31409000  0.98613000  0.65421000
   0.06546000  0.72791000  0.64757000
   0.16085000  0.73642000  0.61928000
   0.55760000  0.87129000  0.83740000
   0.65299000  0.87981000  0.80912000
Direct configuration=     2
   0.99921161  0.00233037  0.35916295
   0.16667000  0.08333000  0.20781000
   0.24404603  0.99572397  0.35727841
   0.41667000  0.08333000  0.20781000
   0.50009366  0.00213506  0.35891697
   0.66667000  0.08333000  0.20781000
   0.75832484  0.00073125  0.35770279
   0.91667000  0.08333000  0.20781000
   0.99595072  0.24757421  0.35564720
   0.16667000  0.33333000  0.20781000
   0.24899316  0.25036113  0.35985261
   0.41667000  0.33333000  0.20781000
   0.50482052  0.24817803  0.36204156
   0.66667000  0.33333000  0.20781000
   0.75414244  0.24849124  0.35790704
   0.91667000  0.33333000  0.20781000
   0.00164661  0.50016451  0.35884104
   0.16667000  0.58333000  0.20781000
   0.24201972  0.49077074  0.35721462
   0.41667000  0.58333000  0.20781000
   0.49590954  0.50019937  0.35920491
   0.66667000  0.58333000  0.20781000
   0.75625380  0.50391761  0.35965809
   0.91667000  0.58333000  0.20781000
   0.99653150  0.74650636  0.35836626
   0.16667000  0.83333000  0.20781000
   0.24596624  0.75018373  0.36155243
   0.41667000  0.83333000  0.20781000
   0.50257854  0.74614525  0.36158082
   0.66667000  0.83333000  0.20781000
   0.75104556  0.75013045  0.35862543
   0.91667000  0.83333000  0.20781000
   0.57784794  0.91286513  0.50087894
   0.33042446  0.66904279  0.50063382
   0.57784919  0.42246094  0.50184227
   0.33462841  0.17256658  0.50130763
   0.08333000  0.16667000  0.17032000
   0.16628824  0.08919977  0.31482361
   0.08969064  0.17765925  0.39531788
   0.00000000  0.00000000  0.24530000
   0.16667000  0.08333000  0.09533000
   0.20311296  0.06419105  0.51599234
   0.33333000  0.16667000  0.17032000
   0.41472180  0.09342537  0.31678688
   0.32508796  0.15442728  0.39145285
   0.25000000  0.00000000  0.24530000
   0.41667000  0.08333000  0.09533000
   0.58333000  0.16667000  0.17032000
   0.66616940  0.08079554  0.32433988
   0.58995852  0.17330977  0.38995989
   0.50000000  0.00000000  0.24530000
   0.66667000  0.08333000  0.09533000
   0.71238564  0.00819381  0.49116015
   0.83333000  0.16667000  0.17032000
   0.91531190  0.07842140  0.31596861
   0.83420972  0.16207538  0.39067780
   0.75000000  0.00000000  0.24530000
   0.91667000  0.08333000  0.09533000
   0.08333000  0.41667000  0.17032000
   0.15408401  0.32579484  0.31441097
   0.08411325  0.41820707  0.38500952
   0.00000000  0.25000000  0.24530000
   0.16667000  0.33333000  0.09533000
   0.33333000  0.41667000  0.17032000
   0.41208841  0.33870255  0.32229777
   0.32940835  0.41914305  0.38946156
   0.25000000  0.25000000  0.24530000
   0.41667000  0.33333000  0.09533000
   0.48445313  0.26990464  0.46503876
   0.58333000  0.41667000  0.17032000
   0.64854199  0.32162334  0.31508863
   0.59058644  0.42132355  0.40400579
   0.50000000  0.25000000  0.24530000
   0.66667000  0.33333000  0.09533000
   0.83333000  0.41667000  0.17032000
   0.91432934  0.34206703  0.31338109
   0.83427251  0.40818391  0.40317014
   0.75000000  0.25000000  0.24530000
   0.91667000  0.33333000  0.09533000
   0.08333000  0.66667000  0.17032000
   0.16596998  0.58155520  0.32009198
   0.08600043  0.67699028  0.39575376
   0.00000000  0.50000000  0.24530000
   0.16667000  0.58333000  0.09533000
   0.19392002  0.56311484  0.50870456
   0.33333000  0.66667000  0.17032000
   0.41421012  0.59375663  0.31992507
   0.32311485  0.65631125  0.40341940
   0.25000000  0.50000000  0.24530000
   0.41667000  0.58333000  0.09533000
   0.58333000  0.66667000  0.17032000
   0.67015194  0.58675434  0.31607258
   0.58419962  0.66843118  0.38466567
   0.50000000  0.50000000  0.24530000
   0.66667000  0.58333000  0.09533000
   0.68543521  0.55854669  0.51186457
   0.83333000  0.66667000  0.17032000
   0.92290641  0.58813265  0.31590445
   0.84029172  0.67317637  0.38782884
   0.75000000  0.50000000  0.24530000
   0.91667000  0.58333000  0.09533000
   0.08333000  0.91667000  0.17032000
   0.16371698  0.82896277  0.32100421
   0.09162878  0.92046271  0.39563254
   0.00000000  0.75000000  0.24530000
   0.16667000  0.83333000  0.09533000
   0.33333000  0.91667000  0.17032000
   0.43320455  0.83726940  0.32782880
   0.32367771  0.91314865  0.38691277
   0.25000000  0.75000000  0.24530000
   0.41667000  0.83333000  0.09533000
   0.48355114  0.77473151  0.46741106
   0.58333000  0.91667000  0.17032000
   0.67266491  0.83660003  0.32105651
   0.59818487  0.93354602  0.40461014
   0.50000000  0.75000000  0.24530000
   0.66667000  0.83333000  0.09533000
   0.83333000  0.91667000  0.17032000
   0.91653025  0.83238371  0.31407070
   0.84205022  0.92845362  0.39584406
   0.75000000  0.75000000  0.24530000
   0.91667000  0.83333000  0.09533000
   0.48207773  0.44778213  0.47815431
   0.29658887  0.76237298  0.47909381
   0.47785564  0.91947397  0.46074734
   0.53746353  0.38226098  0.57754227
   0.38815510  0.71544226  0.55603999
   0.54931445  0.89122954  0.58180310
   0.65847556  0.37119163  0.49702544
   0.38684348  0.59310131  0.49219584
   0.67640673  0.87147094  0.48913669
   0.30100868  0.26364802  0.47692672
   0.35806510  0.17758151  0.54821830
   0.38708517  0.10251877  0.48414397
   0.62724353  0.39826453  0.74333281
   0.76660458  0.32127563  0.68192320
   0.78734846  0.48656081  0.74307901
   0.25972277  0.72511880  0.75278412
   0.32152636  0.62920239  0.77063453
   0.42025841  0.59029318  0.71892310
   0.91118190  0.96484236  0.80580492
   0.47148264  0.45328588  0.60675022
   0.45132826  0.27226664  0.59864584
   0.19028532  0.41959580  0.65735710
   0.61380276  0.58449508  0.64327535
   0.58013826  0.15991466  0.55552151
   0.28097439  0.72963453  0.65847007
   0.88725258  0.23852414  0.54789570
   0.10722963  0.13609331  0.74422501
   0.21178084  0.08470408  0.66403685
   0.41430605  0.32047636  0.85146367
   0.24270102  0.92211615  0.64894618
   0.09467780  0.70735001  0.61562223
   0.57720122  0.83453297  0.80051367
   0.70978496  0.55386746  0.81384299
   0.69574595  0.48292134  0.73092162
   0.78215621  0.34763468  0.72009579
   0.83989427  0.40497789  0.70879650
   0.71127269  0.41613528  0.80048795
   0.37601828  0.29727714  0.42110626
   0.55493070  0.18981369  0.00476692
   0.23781237  0.60589130  0.71368543
   0.32904193  0.68605394  0.89776418
   0.38558015  0.82140649  0.80616818
   0.20453499  0.50090136  0.73614505
   0.55346504  0.69576048  0.70854814
   0.91059781  0.06155382  0.86842890
   0.02228822  0.08306714  0.82153654
   0.22366146  0.21440678  0.47795536
   0.52598626  0.50983045  0.57436297
   0.21941612  0.56536999  0.50000221
   0.49939664  0.37032433  0.49039234
   0.20300038  0.53366654  0.65970198
   0.27742092  0.47756892  0.61238193
   0.62110905  0.32493555  0.48238144
   0.16317555  0.19171710  0.52688817
   0.36226950  0.12658599  0.52042626
   0.60062970  0.27691991  0.52764414
   0.20590781  0.81134957  0.68074376
   0.29059426  0.70964984  0.64244660
   0.89543308  0.31392262  0.60278253
   0.93911042  0.27353173  0.56583839
   0.08499932  0.20272173  0.76436975
   0.12531945  0.19431650  0.78191493
   0.21102843  0.14838822  0.62380764
   0.45490381  0.22901232  0.75869009
   0.39536027  0.44070081  0.01807139
   0.53196339  0.27082731  0.75059670
   0.25682471  0.11842648  0.62353624
   0.26629279  0.00835708  0.64417834
   0.06682668  0.75936171  0.62023117
   0.15597588  0.72456983  0.56043141
   0.56753713  0.90023628  0.85131951
   0.57182327  0.86418483  0.83748979
