Ce O  Ce O  Ce O  Ce O  Ce O  Ce O  Ce O  Ce O  Ce O  Ce O  Ce O  Ce O  Ce O  Ce O  Ce O  Ce O 
 1.0000000000000000
    15.4642999999999997    0.0000000000000000    0.0000000000000000
    -7.7321499999999963   13.3924766517436957    0.0000000000000000
     0.0000000000000000    0.0000000000000000   21.0482000000000014
 Ce  O   Ce  O   Ce  O   Ce  O   Ce  O   Ce  O   Ce  O   Ce  O   Ce  O   Ce  O   Ce  O   Ce  O   Ce  O   Ce  O   Ce  O   Ce  O  
   3   7   3   7   3   7   3   7   3   7   3   7   3   7   3   7   3   7   3   7   3   7   3   7   3   7   3   7   3   7   3   7
Cartesian
  0.0000000000000000  0.0000000000000000  9.6806986259999999
  1.9331148215000007  1.1159950793898019  6.5241000720000004
 -0.0000773214999994  2.2321240835461214  3.3675015180000001
  0.0000000000000000  0.0000000000000000  2.5784045000000000
 -0.0000773214999994  2.2321240835461214  5.7350030539999999
  1.9331148215000007  1.1159950793898019  8.8916016080000002
 -0.0000773214999994  2.2321240835461214  0.9999999820000000
 -0.0000773214999994  2.2321240835461214 10.4697956439999995
  0.0000000000000000  0.0000000000000000  7.3131970900000001
  1.9331148215000007  1.1159950793898019  4.1565985359999997
  3.8660749999999999  0.0000000000000000  9.6806986259999999
  5.7991898214999997  1.1159950793898019  6.5241000720000004
  3.8659976785000012  2.2321240835461214  3.3675015180000001
  3.8660749999999999  0.0000000000000000  2.5784045000000000
  3.8659976785000012  2.2321240835461214  5.7350030539999999
  5.7991898214999997  1.1159950793898019  8.8916016080000002
  3.8659976785000012  2.2321240835461214  0.9999999820000000
  3.8659976785000012  2.2321240835461214 10.4697956439999995
  3.8660749999999999  0.0000000000000000  7.3131970900000001
  5.7991898214999997  1.1159950793898019  4.1565985359999997
  7.7321499999999999  0.0000000000000000  9.6806986259999999
  9.6652648214999992  1.1159950793898019  6.5241000720000004
  7.7320726785000016  2.2321240835461214  3.3675015180000001
  7.7321499999999999  0.0000000000000000  2.5784045000000000
  7.7320726785000016  2.2321240835461214  5.7350030539999999
  9.6652648214999992  1.1159950793898019  8.8916016080000002
  7.7320726785000016  2.2321240835461214  0.9999999820000000
  7.7320726785000016  2.2321240835461214 10.4697956439999995
  7.7321499999999999  0.0000000000000000  7.3131970900000001
  9.6652648214999992  1.1159950793898019  4.1565985359999997
 11.5982249999999993  0.0000000000000000  9.6806986259999999
 13.5313398214999996  1.1159950793898019  6.5241000720000004
 11.5981476784999984  2.2321240835461214  3.3675015180000001
 11.5982249999999993  0.0000000000000000  2.5784045000000000
 11.5981476784999984  2.2321240835461214  5.7350030539999999
 13.5313398214999996  1.1159950793898019  8.8916016080000002
 11.5981476784999984  2.2321240835461214  0.9999999820000000
 11.5981476784999984  2.2321240835461214 10.4697956439999995
 11.5982249999999993  0.0000000000000000  7.3131970900000001
 13.5313398214999996  1.1159950793898019  4.1565985359999997
 13.5312625000000004  3.3481191629359235  9.6806986259999999
  0.0000773215000014  4.4641142423257252  6.5241000720000004
 -1.9331148214999982  5.5802432464820457  3.3675015180000001
 13.5312625000000004  3.3481191629359235  2.5784045000000000
 -1.9331148214999982  5.5802432464820457  5.7350030539999999
  0.0000773215000014  4.4641142423257252  8.8916016080000002
 -1.9331148214999982  5.5802432464820457  0.9999999820000000
 -1.9331148214999982  5.5802432464820457 10.4697956439999995
 13.5312625000000004  3.3481191629359235  7.3131970900000001
  0.0000773215000014  4.4641142423257252  4.1565985359999997
  1.9330375000000011  3.3481191629359235  9.6806986259999999
  3.8661523215000013  4.4641142423257252  6.5241000720000004
  1.9329601785000021  5.5802432464820457  3.3675015180000001
  1.9330375000000011  3.3481191629359235  2.5784045000000000
  1.9329601785000021  5.5802432464820457  5.7350030539999999
  3.8661523215000013  4.4641142423257252  8.8916016080000002
  1.9329601785000021  5.5802432464820457  0.9999999820000000
  1.9329601785000021  5.5802432464820457 10.4697956439999995
  1.9330375000000011  3.3481191629359235  7.3131970900000001
  3.8661523215000013  4.4641142423257252  4.1565985359999997
  5.7991125000000006  3.3481191629359235  9.6806986259999999
  7.7322273215000008  4.4641142423257252  6.5241000720000004
  5.7990351785000023  5.5802432464820457  3.3675015180000001
  5.7991125000000006  3.3481191629359235  2.5784045000000000
  5.7990351785000023  5.5802432464820457  5.7350030539999999
  7.7322273215000008  4.4641142423257252  8.8916016080000002
  5.7990351785000023  5.5802432464820457  0.9999999820000000
  5.7990351785000023  5.5802432464820457 10.4697956439999995
  5.7991125000000006  3.3481191629359235  7.3131970900000001
  7.7322273215000008  4.4641142423257252  4.1565985359999997
  9.6651875000000000  3.3481191629359235  9.6806986259999999
 11.5983023215000003  4.4641142423257252  6.5241000720000004
  9.6651101784999991  5.5802432464820457  3.3675015180000001
  9.6651875000000000  3.3481191629359235  2.5784045000000000
  9.6651101784999991  5.5802432464820457  5.7350030539999999
 11.5983023215000003  4.4641142423257252  8.8916016080000002
  9.6651101784999991  5.5802432464820457  0.9999999820000000
  9.6651101784999991  5.5802432464820457 10.4697956439999995
  9.6651875000000000  3.3481191629359235  7.3131970900000001
 11.5983023215000003  4.4641142423257252  4.1565985359999997
 11.5982250000000011  6.6962383258718470  9.6806986259999999
 -1.9329601784999977  7.8122334052616500  6.5241000720000004
 -3.8661523214999973  8.9283624094179697  3.3675015180000001
 11.5982250000000011  6.6962383258718470  2.5784045000000000
 -3.8661523214999973  8.9283624094179697  5.7350030539999999
 -1.9329601784999977  7.8122334052616500  8.8916016080000002
 -3.8661523214999973  8.9283624094179697  0.9999999820000000
 -3.8661523214999973  8.9283624094179697 10.4697956439999995
 11.5982250000000011  6.6962383258718470  7.3131970900000001
 -1.9329601784999977  7.8122334052616500  4.1565985359999997
  0.0000000000000018  6.6962383258718470  9.6806986259999999
  1.9331148215000018  7.8122334052616500  6.5241000720000004
 -0.0000773214999970  8.9283624094179697  3.3675015180000001
  0.0000000000000018  6.6962383258718470  2.5784045000000000
 -0.0000773214999970  8.9283624094179697  5.7350030539999999
  1.9331148215000018  7.8122334052616500  8.8916016080000002
 -0.0000773214999970  8.9283624094179697  0.9999999820000000
 -0.0000773214999970  8.9283624094179697 10.4697956439999995
  0.0000000000000018  6.6962383258718470  7.3131970900000001
  1.9331148215000018  7.8122334052616500  4.1565985359999997
  3.8660750000000021  6.6962383258718470  9.6806986259999999
  5.7991898215000015  7.8122334052616500  6.5241000720000004
  3.8659976785000034  8.9283624094179697  3.3675015180000001
  3.8660750000000021  6.6962383258718470  2.5784045000000000
  3.8659976785000034  8.9283624094179697  5.7350030539999999
  5.7991898215000015  7.8122334052616500  8.8916016080000002
  3.8659976785000034  8.9283624094179697  0.9999999820000000
  3.8659976785000034  8.9283624094179697 10.4697956439999995
  3.8660750000000021  6.6962383258718470  7.3131970900000001
  5.7991898215000015  7.8122334052616500  4.1565985359999997
  7.7321500000000016  6.6962383258718470  9.6806986259999999
  9.6652648215000010  7.8122334052616500  6.5241000720000004
  7.7320726784999998  8.9283624094179697  3.3675015180000001
  7.7321500000000016  6.6962383258718470  2.5784045000000000
  7.7320726784999998  8.9283624094179697  5.7350030539999999
  9.6652648215000010  7.8122334052616500  8.8916016080000002
  7.7320726784999998  8.9283624094179697  0.9999999820000000
  7.7320726784999998  8.9283624094179697 10.4697956439999995
  7.7321500000000016  6.6962383258718470  7.3131970900000001
  9.6652648215000010  7.8122334052616500  4.1565985359999997
 -5.7991124999999970 10.0443574888077727  9.6806986259999999
 -3.8659976784999968 11.1603525681975722  6.5241000720000004
 -5.7991898214999962 12.2764815723538927  3.3675015180000001
 -5.7991124999999970 10.0443574888077727  2.5784045000000000
 -5.7991898214999962 12.2764815723538927  5.7350030539999999
 -3.8659976784999968 11.1603525681975722  8.8916016080000002
 -5.7991898214999962 12.2764815723538927  0.9999999820000000
 -5.7991898214999962 12.2764815723538927 10.4697956439999995
 -5.7991124999999970 10.0443574888077727  7.3131970900000001
 -3.8659976784999968 11.1603525681975722  4.1565985359999997
 -1.9330374999999973 10.0443574888077727  9.6806986259999999
  0.0000773215000027 11.1603525681975722  6.5241000720000004
 -1.9331148214999960 12.2764815723538927  3.3675015180000001
 -1.9330374999999973 10.0443574888077727  2.5784045000000000
 -1.9331148214999960 12.2764815723538927  5.7350030539999999
  0.0000773215000027 11.1603525681975722  8.8916016080000002
 -1.9331148214999960 12.2764815723538927  0.9999999820000000
 -1.9331148214999960 12.2764815723538927 10.4697956439999995
 -1.9330374999999973 10.0443574888077727  7.3131970900000001
  0.0000773215000027 11.1603525681975722  4.1565985359999997
  1.9330375000000026 10.0443574888077727  9.6806986259999999
  3.8661523215000031 11.1603525681975722  6.5241000720000004
  1.9329601785000052 12.2764815723538927  3.3675015180000001
  1.9330375000000026 10.0443574888077727  2.5784045000000000
  1.9329601785000052 12.2764815723538927  5.7350030539999999
  3.8661523215000031 11.1603525681975722  8.8916016080000002
  1.9329601785000052 12.2764815723538927  0.9999999820000000
  1.9329601785000052 12.2764815723538927 10.4697956439999995
  1.9330375000000026 10.0443574888077727  7.3131970900000001
  3.8661523215000031 11.1603525681975722  4.1565985359999997
  5.7991125000000023 10.0443574888077727  9.6806986259999999
  7.7322273215000035 11.1603525681975722  6.5241000720000004
  5.7990351785000023 12.2764815723538927  3.3675015180000001
  5.7991125000000023 10.0443574888077727  2.5784045000000000
  5.7990351785000023 12.2764815723538927  5.7350030539999999
  7.7322273215000035 11.1603525681975722  8.8916016080000002
  5.7990351785000023 12.2764815723538927  0.9999999820000000
  5.7990351785000023 12.2764815723538927 10.4697956439999995
  5.7991125000000023 10.0443574888077727  7.3131970900000001
  7.7322273215000035 11.1603525681975722  4.1565985359999997
