Generated by VASPKIT code
 1.000000
   15.4642999999999997    0.0000000000000000    0.0000000000000000
   -7.7321499999999963   13.3924766517436957    0.0000000000000000
    0.0000000000000000    0.0000000000000000   21.0482000000000014
   Ce   O 
    48   112
Direct
    0.0000000000000000    0.0000000000000000    0.4599299999999999    Ce001
    0.1666700000000000    0.0833300000000000    0.3099600000000000    Ce002
    0.0833300000000000    0.1666700000000000    0.1599900000000000    Ce003
    0.2500000000000000    0.0000000000000000    0.4599299999999999    Ce004
    0.4166699999999999    0.0833300000000000    0.3099600000000000    Ce005
    0.3333300000000000    0.1666700000000000    0.1599900000000000    Ce006
    0.5000000000000000    0.0000000000000000    0.4599299999999999    Ce007
    0.6666699999999999    0.0833300000000000    0.3099600000000000    Ce008
    0.5833300000000000    0.1666700000000000    0.1599900000000000    Ce009
    0.7500000000000000    0.0000000000000000    0.4599299999999999    Ce010
    0.9166699999999999    0.0833300000000000    0.3099600000000000    Ce011
    0.8333299999999998    0.1666700000000000    0.1599900000000000    Ce012
    0.9999999999999999    0.2499999999999999    0.4599299999999999    Ce013
    0.1666700000000000    0.3333299999999999    0.3099600000000000    Ce014
    0.0833300000000000    0.4166700000000000    0.1599900000000000    Ce015
    0.2500000000000000    0.2499999999999999    0.4599299999999999    Ce016
    0.4166700000000000    0.3333299999999999    0.3099600000000000    Ce017
    0.3333300000000000    0.4166700000000000    0.1599900000000000    Ce018
    0.5000000000000000    0.2499999999999999    0.4599299999999999    Ce019
    0.6666699999999999    0.3333299999999999    0.3099600000000000    Ce020
    0.5833300000000000    0.4166700000000000    0.1599900000000000    Ce021
    0.7499999999999999    0.2499999999999999    0.4599299999999999    Ce022
    0.9166699999999999    0.3333299999999999    0.3099600000000000    Ce023
    0.8333299999999999    0.4166700000000000    0.1599900000000000    Ce024
    0.0000000000000000    0.4999999999999999    0.4599299999999999    Ce025
    0.1666700000000000    0.5833300000000000    0.3099600000000000    Ce026
    0.0833300000000001    0.6666700000000000    0.1599900000000000    Ce027
    0.2500000000000000    0.4999999999999999    0.4599299999999999    Ce028
    0.4166700000000000    0.5833300000000000    0.3099600000000000    Ce029
    0.3333300000000001    0.6666700000000000    0.1599900000000000    Ce030
    0.5000000000000000    0.4999999999999999    0.4599299999999999    Ce031
    0.6666700000000000    0.5833300000000000    0.3099600000000000    Ce032
    0.5833300000000001    0.6666700000000000    0.1599900000000000    Ce033
    0.7500000000000000    0.4999999999999999    0.4599299999999999    Ce034
    0.9166699999999999    0.5833300000000000    0.3099600000000000    Ce035
    0.8333299999999999    0.6666700000000000    0.1599900000000000    Ce036
    0.0000000000000001    0.7500000000000000    0.4599299999999999    Ce037
    0.1666699999999999    0.8333299999999998    0.3099600000000000    Ce038
    0.0833300000000000    0.9166699999999999    0.1599900000000000    Ce039
    0.2500000000000001    0.7500000000000000    0.4599299999999999    Ce040
    0.4166699999999999    0.8333299999999998    0.3099600000000000    Ce041
    0.3333300000000000    0.9166699999999999    0.1599900000000000    Ce042
    0.5000000000000000    0.7500000000000000    0.4599299999999999    Ce043
    0.6666699999999999    0.8333299999999998    0.3099600000000000    Ce044
    0.5833300000000001    0.9166699999999999    0.1599900000000000    Ce045
    0.7500000000000000    0.7500000000000000    0.4599299999999999    Ce046
    0.9166700000000000    0.8333299999999998    0.3099600000000000    Ce047
    0.8333299999999999    0.9166699999999999    0.1599900000000000    Ce048
    0.0000000000000000    0.0000000000000000    0.1225000000000000     O001
    0.0833300000000000    0.1666700000000000    0.2724700000000000     O002
    0.1666700000000000    0.0833300000000000    0.4224400000000000     O003
    0.0833300000000000    0.1666700000000000    0.0475100000000000     O004
    0.0833300000000000    0.1666700000000000    0.4974200000000000     O005
    0.0000000000000000    0.0000000000000000    0.3474500000000000     O006
    0.1666700000000000    0.0833300000000000    0.1974800000000000     O007
    0.2500000000000000    0.0000000000000000    0.1225000000000000     O008
    0.3333300000000000    0.1666700000000000    0.2724700000000000     O009
    0.4166699999999999    0.0833300000000000    0.4224400000000000     O010
    0.3333300000000000    0.1666700000000000    0.0475100000000000     O011
    0.3333300000000000    0.1666700000000000    0.4974200000000000     O012
    0.2500000000000000    0.0000000000000000    0.3474500000000000     O013
    0.4166699999999999    0.0833300000000000    0.1974800000000000     O014
    0.5000000000000000    0.0000000000000000    0.1225000000000000     O015
    0.5833300000000000    0.1666700000000000    0.2724700000000000     O016
    0.6666699999999999    0.0833300000000000    0.4224400000000000     O017
    0.5833300000000000    0.1666700000000000    0.0475100000000000     O018
    0.5833300000000000    0.1666700000000000    0.4974200000000000     O019
    0.5000000000000000    0.0000000000000000    0.3474500000000000     O020
    0.6666699999999999    0.0833300000000000    0.1974800000000000     O021
    0.7500000000000000    0.0000000000000000    0.1225000000000000     O022
    0.8333299999999998    0.1666700000000000    0.2724700000000000     O023
    0.9166699999999999    0.0833300000000000    0.4224400000000000     O024
    0.8333299999999998    0.1666700000000000    0.0475100000000000     O025
    0.8333299999999998    0.1666700000000000    0.4974200000000000     O026
    0.7500000000000000    0.0000000000000000    0.3474500000000000     O027
    0.9166699999999999    0.0833300000000000    0.1974800000000000     O028
    0.9999999999999999    0.2499999999999999    0.1225000000000000     O029
    0.0833300000000000    0.4166700000000000    0.2724700000000000     O030
    0.1666700000000000    0.3333299999999999    0.4224400000000000     O031
    0.0833300000000000    0.4166700000000000    0.0475100000000000     O032
    0.0833300000000000    0.4166700000000000    0.4974200000000000     O033
    0.9999999999999999    0.2499999999999999    0.3474500000000000     O034
    0.1666700000000000    0.3333299999999999    0.1974800000000000     O035
    0.2500000000000000    0.2499999999999999    0.1225000000000000     O036
    0.3333300000000000    0.4166700000000000    0.2724700000000000     O037
    0.4166700000000000    0.3333299999999999    0.4224400000000000     O038
    0.3333300000000000    0.4166700000000000    0.0475100000000000     O039
    0.3333300000000000    0.4166700000000000    0.4974200000000000     O040
    0.2500000000000000    0.2499999999999999    0.3474500000000000     O041
    0.4166700000000000    0.3333299999999999    0.1974800000000000     O042
    0.5000000000000000    0.2499999999999999    0.1225000000000000     O043
    0.5833300000000000    0.4166700000000000    0.2724700000000000     O044
    0.6666699999999999    0.3333299999999999    0.4224400000000000     O045
    0.5833300000000000    0.4166700000000000    0.0475100000000000     O046
    0.5833300000000000    0.4166700000000000    0.4974200000000000     O047
    0.5000000000000000    0.2499999999999999    0.3474500000000000     O048
    0.6666699999999999    0.3333299999999999    0.1974800000000000     O049
    0.7499999999999999    0.2499999999999999    0.1225000000000000     O050
    0.8333299999999999    0.4166700000000000    0.2724700000000000     O051
    0.9166699999999999    0.3333299999999999    0.4224400000000000     O052
    0.8333299999999999    0.4166700000000000    0.0475100000000000     O053
    0.8333299999999999    0.4166700000000000    0.4974200000000000     O054
    0.7499999999999999    0.2499999999999999    0.3474500000000000     O055
    0.9166699999999999    0.3333299999999999    0.1974800000000000     O056
    0.0000000000000000    0.4999999999999999    0.1225000000000000     O057
    0.0833300000000001    0.6666700000000000    0.2724700000000000     O058
    0.1666700000000000    0.5833300000000000    0.4224400000000000     O059
    0.0833300000000001    0.6666700000000000    0.0475100000000000     O060
    0.0833300000000001    0.6666700000000000    0.4974200000000000     O061
    0.0000000000000000    0.4999999999999999    0.3474500000000000     O062
    0.1666700000000000    0.5833300000000000    0.1974800000000000     O063
    0.2500000000000000    0.4999999999999999    0.1225000000000000     O064
    0.3333300000000001    0.6666700000000000    0.2724700000000000     O065
    0.4166700000000000    0.5833300000000000    0.4224400000000000     O066
    0.3333300000000001    0.6666700000000000    0.0475100000000000     O067
    0.3333300000000001    0.6666700000000000    0.4974200000000000     O068
    0.2500000000000000    0.4999999999999999    0.3474500000000000     O069
    0.4166700000000000    0.5833300000000000    0.1974800000000000     O070
    0.5000000000000000    0.4999999999999999    0.1225000000000000     O071
    0.5833300000000001    0.6666700000000000    0.2724700000000000     O072
    0.6666700000000000    0.5833300000000000    0.4224400000000000     O073
    0.5833300000000001    0.6666700000000000    0.0475100000000000     O074
    0.5833300000000001    0.6666700000000000    0.4974200000000000     O075
    0.5000000000000000    0.4999999999999999    0.3474500000000000     O076
    0.6666700000000000    0.5833300000000000    0.1974800000000000     O077
    0.7500000000000000    0.4999999999999999    0.1225000000000000     O078
    0.8333299999999999    0.6666700000000000    0.2724700000000000     O079
    0.9166699999999999    0.5833300000000000    0.4224400000000000     O080
    0.8333299999999999    0.6666700000000000    0.0475100000000000     O081
    0.8333299999999999    0.6666700000000000    0.4974200000000000     O082
    0.7500000000000000    0.4999999999999999    0.3474500000000000     O083
    0.9166699999999999    0.5833300000000000    0.1974800000000000     O084
    0.0000000000000001    0.7500000000000000    0.1225000000000000     O085
    0.0833300000000000    0.9166699999999999    0.2724700000000000     O086
    0.1666699999999999    0.8333299999999998    0.4224400000000000     O087
    0.0833300000000000    0.9166699999999999    0.0475100000000000     O088
    0.0833300000000000    0.9166699999999999    0.4974200000000000     O089
    0.0000000000000001    0.7500000000000000    0.3474500000000000     O090
    0.1666699999999999    0.8333299999999998    0.1974800000000000     O091
    0.2500000000000001    0.7500000000000000    0.1225000000000000     O092
    0.3333300000000000    0.9166699999999999    0.2724700000000000     O093
    0.4166699999999999    0.8333299999999998    0.4224400000000000     O094
    0.3333300000000000    0.9166699999999999    0.0475100000000000     O095
    0.3333300000000000    0.9166699999999999    0.4974200000000000     O096
    0.2500000000000001    0.7500000000000000    0.3474500000000000     O097
    0.4166699999999999    0.8333299999999998    0.1974800000000000     O098
    0.5000000000000000    0.7500000000000000    0.1225000000000000     O099
    0.5833300000000001    0.9166699999999999    0.2724700000000000     O100
    0.6666699999999999    0.8333299999999998    0.4224400000000000     O101
    0.5833300000000001    0.9166699999999999    0.0475100000000000     O102
    0.5833300000000001    0.9166699999999999    0.4974200000000000     O103
    0.5000000000000000    0.7500000000000000    0.3474500000000000     O104
    0.6666699999999999    0.8333299999999998    0.1974800000000000     O105
    0.7500000000000000    0.7500000000000000    0.1225000000000000     O106
    0.8333299999999999    0.9166699999999999    0.2724700000000000     O107
    0.9166700000000000    0.8333299999999998    0.4224400000000000     O108
    0.8333299999999999    0.9166699999999999    0.0475100000000000     O109
    0.8333299999999999    0.9166699999999999    0.4974200000000000     O110
    0.7500000000000000    0.7500000000000000    0.3474500000000000     O111
    0.9166700000000000    0.8333299999999998    0.1974800000000000     O112
