CeO2_111_33_vO-Ir-0                     
   1.00000000000000     
    11.5981998443999998    0.0000000000000000    0.0000000000000000
    -5.7990999221999999   10.0443357033999998    0.0000000000000000
     0.0000000000000000    0.0000000000000000   21.0482006073000001
  Ce              O               Ir            
    18    51     2
Direct
  0.0049841288493222  0.0023563183555394  0.4583619936794283
  0.2211470791260826  0.1096325602699478  0.3071573039420424
  0.3307351908384252  0.9959719334560356  0.4624346493126447
  0.5553140927261127  0.1115106239582132  0.3089191658607316
  0.6744193883106877  0.0058324104171425  0.4569998650496823
  0.8905756930318248  0.1128829983684438  0.3058862043639581
  0.9984470306283915  0.3327105833359125  0.4593547347179779
  0.2188011554789696  0.4420917036186351  0.3067072322782141
  0.3316863568378862  0.3287298889704668  0.4582635546773173
  0.5555005563622191  0.4431189421505238  0.3057982979033388
  0.6708215206634939  0.3334912816568668  0.4583333020319113
  0.8895265402965329  0.4436957459001521  0.3078376735230337
  0.0042917140830887  0.6674401571660520  0.4590698397302259
  0.2219458138967108  0.7783437065891774  0.3077680894536985
  0.3313642438749585  0.6585857498769661  0.4572654121781064
  0.5564379150460314  0.7798945024900228  0.3058283052674226
  0.6694349638410172  0.6642342337723618  0.4566494326358087
  0.8913691162619028  0.7798835442173105  0.3073366449410458
  0.0023613134110592  0.0016500233622688  0.5737734370133529
  0.1091084459517985  0.2214658268167135  0.2682477714424529
  0.2203915568623801  0.1085237466225349  0.4195009296906457
  0.1092698334457653  0.2209016670491178  0.4941894076079962
  0.0004344871926440  0.0000296800994725  0.3442635755542264
  0.3266737710592886  0.0026046527274678  0.5798968606390752
  0.4450338768892682  0.2233344696886763  0.2698480877419985
  0.5562723934773822  0.1062535745625561  0.4203069151591482
  0.4377126997065668  0.2119402035181212  0.4918857224627238
  0.3325469803704180  0.9994790945650707  0.3474802682614391
  0.6457049138110003  0.9903506616381287  0.5759845613334225
  0.7784697346041903  0.2225321450608407  0.2701603495662430
  0.8910565023022398  0.1139048419388046  0.4161551385240825
  0.7810994854091696  0.2229821414802210  0.4908894261607489
  0.6681310911614559  0.0009854029937485  0.3447816086001079
  0.9991845949504100  0.3309956737641740  0.5743612750484505
  0.1109696829676174  0.5558344373142461  0.2697667757565989
  0.2250426944903364  0.4436885312374009  0.4190950540915390
  0.1126297899239631  0.5535476304035373  0.4931813794754662
  0.0019980388827892  0.3352212572585802  0.3449378180543822
  0.3380889493841149  0.3492737871234960  0.5798361702335511
  0.4459614976154481  0.5567142377518863  0.2699222205134722
  0.5569609356812064  0.4473383185820942  0.4176025924325341
  0.4413489655235209  0.5397602957021280  0.4997105701498830
  0.3293806045551371  0.3301066824466594  0.3447185289060815
  0.6663759053988001  0.3389130875316590  0.5736161144638815
  0.7759565323477584  0.5542623859733892  0.2706962589346459
  0.8880583415602464  0.4442617605346217  0.4173355152566594
  0.7890221402378742  0.5636365191257792  0.4923807221243382
  0.6651394094794760  0.3309459827087949  0.3455466307404042
  0.9992905043315666  0.6680969802488439  0.5737215859813334
  0.1124148980062770  0.8891244568434101  0.2690140301360174
  0.2298947156194654  0.7801348346165812  0.4215363451434138
  0.1122785320581541  0.8887709606500888  0.4984853718828601
  0.0042157647889801  0.6686317330777125  0.3454516032926178
  0.3442020775354549  0.6931675908665135  0.5698937038954246
  0.4449207202606938  0.8876582052327118  0.2702783998160260
  0.5482805865919057  0.7777608936851348  0.4182261123344824
  0.4479374920687409  0.8977342582667966  0.5047416521769521
  0.3289186813215178  0.6638568228292330  0.3456070178672557
  0.6469654579164359  0.6426238038752403  0.5768656609056535
  0.7758860408714513  0.8899120073860395  0.2684053109742955
  0.8910343596496999  0.7775766379207920  0.4172844458059797
  0.7874552088535950  0.8954415260262675  0.4896680450926192
  0.6681716755518169  0.6713000832000096  0.3441902833872544
  0.4079759099840080  0.9217216396995619  0.6341451679591833
  0.5384294796530108  0.7783627514808424  0.6541592641325941
  0.5837852574936462  0.7737862101611482  0.5251172229041828
  0.4222620330110889  0.5710617679767831  0.6401976892723377
  0.5519306693110113  0.4419165478997616  0.6648971624144704
  0.5695124381173704  0.4072188740386103  0.5442882859075338
  0.4894202374000806  0.8481400056655269  0.5916916998210942
  0.4960795907970514  0.4916958042004279  0.6005005514102210
 
  0.00000000E+00  0.00000000E+00  0.00000000E+00
  0.00000000E+00  0.00000000E+00  0.00000000E+00
  0.00000000E+00  0.00000000E+00  0.00000000E+00
  0.00000000E+00  0.00000000E+00  0.00000000E+00
  0.00000000E+00  0.00000000E+00  0.00000000E+00
  0.00000000E+00  0.00000000E+00  0.00000000E+00
  0.00000000E+00  0.00000000E+00  0.00000000E+00
  0.00000000E+00  0.00000000E+00  0.00000000E+00
  0.00000000E+00  0.00000000E+00  0.00000000E+00
  0.00000000E+00  0.00000000E+00  0.00000000E+00
  0.00000000E+00  0.00000000E+00  0.00000000E+00
  0.00000000E+00  0.00000000E+00  0.00000000E+00
  0.00000000E+00  0.00000000E+00  0.00000000E+00
  0.00000000E+00  0.00000000E+00  0.00000000E+00
  0.00000000E+00  0.00000000E+00  0.00000000E+00
  0.00000000E+00  0.00000000E+00  0.00000000E+00
  0.00000000E+00  0.00000000E+00  0.00000000E+00
  0.00000000E+00  0.00000000E+00  0.00000000E+00
  0.00000000E+00  0.00000000E+00  0.00000000E+00
  0.00000000E+00  0.00000000E+00  0.00000000E+00
  0.00000000E+00  0.00000000E+00  0.00000000E+00
  0.00000000E+00  0.00000000E+00  0.00000000E+00
  0.00000000E+00  0.00000000E+00  0.00000000E+00
  0.00000000E+00  0.00000000E+00  0.00000000E+00
  0.00000000E+00  0.00000000E+00  0.00000000E+00
  0.00000000E+00  0.00000000E+00  0.00000000E+00
  0.00000000E+00  0.00000000E+00  0.00000000E+00
  0.00000000E+00  0.00000000E+00  0.00000000E+00
  0.00000000E+00  0.00000000E+00  0.00000000E+00
  0.00000000E+00  0.00000000E+00  0.00000000E+00
  0.00000000E+00  0.00000000E+00  0.00000000E+00
  0.00000000E+00  0.00000000E+00  0.00000000E+00
  0.00000000E+00  0.00000000E+00  0.00000000E+00
  0.00000000E+00  0.00000000E+00  0.00000000E+00
  0.00000000E+00  0.00000000E+00  0.00000000E+00
  0.00000000E+00  0.00000000E+00  0.00000000E+00
  0.00000000E+00  0.00000000E+00  0.00000000E+00
  0.00000000E+00  0.00000000E+00  0.00000000E+00
  0.00000000E+00  0.00000000E+00  0.00000000E+00
  0.00000000E+00  0.00000000E+00  0.00000000E+00
  0.00000000E+00  0.00000000E+00  0.00000000E+00
  0.00000000E+00  0.00000000E+00  0.00000000E+00
  0.00000000E+00  0.00000000E+00  0.00000000E+00
  0.00000000E+00  0.00000000E+00  0.00000000E+00
  0.00000000E+00  0.00000000E+00  0.00000000E+00
  0.00000000E+00  0.00000000E+00  0.00000000E+00
  0.00000000E+00  0.00000000E+00  0.00000000E+00
  0.00000000E+00  0.00000000E+00  0.00000000E+00
  0.00000000E+00  0.00000000E+00  0.00000000E+00
  0.00000000E+00  0.00000000E+00  0.00000000E+00
  0.00000000E+00  0.00000000E+00  0.00000000E+00
  0.00000000E+00  0.00000000E+00  0.00000000E+00
  0.00000000E+00  0.00000000E+00  0.00000000E+00
  0.00000000E+00  0.00000000E+00  0.00000000E+00
  0.00000000E+00  0.00000000E+00  0.00000000E+00
  0.00000000E+00  0.00000000E+00  0.00000000E+00
  0.00000000E+00  0.00000000E+00  0.00000000E+00
  0.00000000E+00  0.00000000E+00  0.00000000E+00
  0.00000000E+00  0.00000000E+00  0.00000000E+00
  0.00000000E+00  0.00000000E+00  0.00000000E+00
  0.00000000E+00  0.00000000E+00  0.00000000E+00
  0.00000000E+00  0.00000000E+00  0.00000000E+00
  0.00000000E+00  0.00000000E+00  0.00000000E+00
  0.00000000E+00  0.00000000E+00  0.00000000E+00
  0.00000000E+00  0.00000000E+00  0.00000000E+00
  0.00000000E+00  0.00000000E+00  0.00000000E+00
  0.00000000E+00  0.00000000E+00  0.00000000E+00
  0.00000000E+00  0.00000000E+00  0.00000000E+00
  0.00000000E+00  0.00000000E+00  0.00000000E+00
  0.00000000E+00  0.00000000E+00  0.00000000E+00
  0.00000000E+00  0.00000000E+00  0.00000000E+00
