CeO2_111_33_vO-Ir-0                     
   1.00000000000000     
    11.5981998443999998    0.0000000000000000    0.0000000000000000
    -5.7990999221999999   10.0443357033999998    0.0000000000000000
     0.0000000000000000    0.0000000000000000   21.0482006073000001
  Ce              O               Ir            
    18    51     2
Direct
  0.0031010141055508  0.9893977744031641  0.4454304860965491
  0.2282360240808399  0.1031878048795270  0.2977189301748494
  0.3409694390667363  0.9997726458060283  0.4465431993786856
  0.5603787239354525  0.1023051663326986  0.2971530889600024
  0.6791608757223835  0.9973256776495723  0.4484756896595797
  0.8963611995919947  0.1051516997538956  0.2975472343343784
  0.0010230074235278  0.3287663647149909  0.4475242444006408
  0.2265435371557827  0.4353663095795193  0.2977922962109966
  0.3480675242698594  0.3293921872688773  0.4456512129786767
  0.5630201923324395  0.4376886350244796  0.2966201082520027
  0.6741671386272164  0.3267466492633138  0.4461470579031676
  0.8957309214812674  0.4365085497935974  0.2953436821346320
  0.0049034849510555  0.6567122884233459  0.4477700447556534
  0.2274013449508527  0.7698863152975021  0.2987455193524656
  0.3364621553435594  0.6555785488450134  0.4456240443304167
  0.5638721387441397  0.7719661754226986  0.2986717477595948
  0.6738061401800058  0.6607784865080666  0.4471943650339725
  0.8939781886155247  0.7696959999925125  0.2975388351179434
  0.0415483726570663  0.0731032395589003  0.5646310379912316
  0.1177791204391455  0.2153094414780679  0.2594737176299673
  0.2251565959626507  0.1029523583839954  0.4095473381718521
  0.1261989674135808  0.2248655706458966  0.4807093966002762
  0.0066015282358828  0.9935538345910411  0.3365785747895694
  0.2959197475634283  0.0325650706339272  0.7265179105493468
  0.4481466071767088  0.2120017068224782  0.2593085870147000
  0.5604056373910837  0.1017934611694884  0.4084500145873657
  0.4515790580459499  0.2139784798942015  0.4832876205054558
  0.3389349783769511  0.9926799566376386  0.3373890108755729
  0.6290838877224950  0.9740362725012575  0.5725773220358006
  0.7828886519835327  0.2138435890905191  0.2601068955935744
  0.8974266237417782  0.1054149411317784  0.4088762979666148
  0.7794974679930553  0.2207810186726284  0.4793916851076177
  0.6746351040641764  0.9921413916247063  0.3372202269089562
  0.9877473072428566  0.1814594440757457  0.5527951645108971
  0.1141355456530774  0.5457598518073576  0.2593917917319467
  0.2277674530841032  0.4347478136900690  0.4060145816267710
  0.1152598725049396  0.5437739247691145  0.4821418441631171
  0.0048914866378631  0.3249176929093006  0.3360261629442759
  0.3511578648673910  0.3836737203198803  0.5751760732572708
  0.4500750345511124  0.5473568476980932  0.2607438012135295
  0.5639955515858976  0.4372995961842771  0.4059529736392714
  0.4544726684075407  0.5484048243106113  0.4812820382131509
  0.3410302511478549  0.3244905306348314  0.3351725761619320
  0.8272259984625226  0.3334340404663734  0.6607049900943872
  0.7804541005171782  0.5465677836344892  0.2590271951205662
  0.8952169749814785  0.4396210022290927  0.4058593508082145
  0.7817358372280130  0.5472485513935199  0.4827761110089313
  0.6705536955825242  0.3228253886570644  0.3353642418048925
  0.0354767748923390  0.7334905346827465  0.5544917350193738
  0.1133736893011230  0.8795936228601329  0.2614092358387521
  0.2311573495743692  0.7735797137100552  0.4095690936512864
  0.1194477909781301  0.8880541305837133  0.4856907324588409
  0.0082551767831513  0.6589949774101872  0.3348078208166498
  0.3607503019944960  0.9637070110626105  0.5763216093744085
  0.4527303541727963  0.8819484998454190  0.2606038192334414
  0.5591876325224443  0.7724000868182520  0.4092603792224130
  0.4529060549421151  0.8837382791373924  0.4859351418577468
  0.3382073428891785  0.6593311329191006  0.3344952226994124
  0.5840684213621620  0.6144877336828030  0.6018411861153614
  0.7874598343677419  0.8839772141760295  0.2597807884126700
  0.8978565001565284  0.7711437059028096  0.4079179851740045
  0.7848612093580120  0.8800780647737212  0.4809301043649902
  0.6728544016598101  0.6618010839686204  0.3376673432366060
  0.2132127309201815  0.0588144365844909  0.7454203067135700
  0.4566225409318105  0.8772660591917338  0.6712138598020869
  0.3748328324005714  0.7078267690738762  0.5723796451975881
  0.3705528025196384  0.5324893622709758  0.6960706991472264
  0.5256504472715910  0.4053458982863368  0.6786695050837569
  0.7720223587755298  0.3808122001447148  0.6294577795011591
  0.4482446707694328  0.8782482513644979  0.5865870485693778
  0.4500137396568296  0.4835826069746286  0.6379026390479612
 
  0.00000000E+00  0.00000000E+00  0.00000000E+00
  0.00000000E+00  0.00000000E+00  0.00000000E+00
  0.00000000E+00  0.00000000E+00  0.00000000E+00
  0.00000000E+00  0.00000000E+00  0.00000000E+00
  0.00000000E+00  0.00000000E+00  0.00000000E+00
  0.00000000E+00  0.00000000E+00  0.00000000E+00
  0.00000000E+00  0.00000000E+00  0.00000000E+00
  0.00000000E+00  0.00000000E+00  0.00000000E+00
  0.00000000E+00  0.00000000E+00  0.00000000E+00
  0.00000000E+00  0.00000000E+00  0.00000000E+00
  0.00000000E+00  0.00000000E+00  0.00000000E+00
  0.00000000E+00  0.00000000E+00  0.00000000E+00
  0.00000000E+00  0.00000000E+00  0.00000000E+00
  0.00000000E+00  0.00000000E+00  0.00000000E+00
  0.00000000E+00  0.00000000E+00  0.00000000E+00
  0.00000000E+00  0.00000000E+00  0.00000000E+00
  0.00000000E+00  0.00000000E+00  0.00000000E+00
  0.00000000E+00  0.00000000E+00  0.00000000E+00
  0.00000000E+00  0.00000000E+00  0.00000000E+00
  0.00000000E+00  0.00000000E+00  0.00000000E+00
  0.00000000E+00  0.00000000E+00  0.00000000E+00
  0.00000000E+00  0.00000000E+00  0.00000000E+00
  0.00000000E+00  0.00000000E+00  0.00000000E+00
  0.00000000E+00  0.00000000E+00  0.00000000E+00
  0.00000000E+00  0.00000000E+00  0.00000000E+00
  0.00000000E+00  0.00000000E+00  0.00000000E+00
  0.00000000E+00  0.00000000E+00  0.00000000E+00
  0.00000000E+00  0.00000000E+00  0.00000000E+00
  0.00000000E+00  0.00000000E+00  0.00000000E+00
  0.00000000E+00  0.00000000E+00  0.00000000E+00
  0.00000000E+00  0.00000000E+00  0.00000000E+00
  0.00000000E+00  0.00000000E+00  0.00000000E+00
  0.00000000E+00  0.00000000E+00  0.00000000E+00
  0.00000000E+00  0.00000000E+00  0.00000000E+00
  0.00000000E+00  0.00000000E+00  0.00000000E+00
  0.00000000E+00  0.00000000E+00  0.00000000E+00
  0.00000000E+00  0.00000000E+00  0.00000000E+00
  0.00000000E+00  0.00000000E+00  0.00000000E+00
  0.00000000E+00  0.00000000E+00  0.00000000E+00
  0.00000000E+00  0.00000000E+00  0.00000000E+00
  0.00000000E+00  0.00000000E+00  0.00000000E+00
  0.00000000E+00  0.00000000E+00  0.00000000E+00
  0.00000000E+00  0.00000000E+00  0.00000000E+00
  0.00000000E+00  0.00000000E+00  0.00000000E+00
  0.00000000E+00  0.00000000E+00  0.00000000E+00
  0.00000000E+00  0.00000000E+00  0.00000000E+00
  0.00000000E+00  0.00000000E+00  0.00000000E+00
  0.00000000E+00  0.00000000E+00  0.00000000E+00
  0.00000000E+00  0.00000000E+00  0.00000000E+00
  0.00000000E+00  0.00000000E+00  0.00000000E+00
  0.00000000E+00  0.00000000E+00  0.00000000E+00
  0.00000000E+00  0.00000000E+00  0.00000000E+00
  0.00000000E+00  0.00000000E+00  0.00000000E+00
  0.00000000E+00  0.00000000E+00  0.00000000E+00
  0.00000000E+00  0.00000000E+00  0.00000000E+00
  0.00000000E+00  0.00000000E+00  0.00000000E+00
  0.00000000E+00  0.00000000E+00  0.00000000E+00
  0.00000000E+00  0.00000000E+00  0.00000000E+00
  0.00000000E+00  0.00000000E+00  0.00000000E+00
  0.00000000E+00  0.00000000E+00  0.00000000E+00
  0.00000000E+00  0.00000000E+00  0.00000000E+00
  0.00000000E+00  0.00000000E+00  0.00000000E+00
  0.00000000E+00  0.00000000E+00  0.00000000E+00
  0.00000000E+00  0.00000000E+00  0.00000000E+00
  0.00000000E+00  0.00000000E+00  0.00000000E+00
  0.00000000E+00  0.00000000E+00  0.00000000E+00
  0.00000000E+00  0.00000000E+00  0.00000000E+00
  0.00000000E+00  0.00000000E+00  0.00000000E+00
  0.00000000E+00  0.00000000E+00  0.00000000E+00
  0.00000000E+00  0.00000000E+00  0.00000000E+00
  0.00000000E+00  0.00000000E+00  0.00000000E+00
