CeO2_111_33_vO-Ir-0                     
   1.00000000000000     
    11.5981998443999998    0.0000000000000000    0.0000000000000000
    -5.7990999221999999   10.0443357033999998    0.0000000000000000
     0.0000000000000000    0.0000000000000000   21.0482006073000001
  Ce              O               Ir            
    18    51     2
Direct
  0.0041199186771721  0.0020250710216657  0.4587962568484743
  0.2206426943146419  0.1095412540002636  0.3074985676608507
  0.3301602013723099  0.9967461596966006  0.4619322808029396
  0.5556045052957153  0.1113468157963839  0.3092666251206397
  0.6749933334305915  0.0064136533840305  0.4567728489329007
  0.8904711185603108  0.1125626182327552  0.3073016020270288
  0.9982483452186742  0.3327923835404437  0.4594449832892267
  0.2189324721089038  0.4422945270124529  0.3076722268948759
  0.3311817691034061  0.3288440050329816  0.4581124911835400
  0.5555745332149626  0.4433823283938937  0.3056984676741263
  0.6700496861349529  0.3331789074995126  0.4585275843198805
  0.8896727001860375  0.4438498657828919  0.3087337084162789
  0.0040333373281874  0.6676626466874621  0.4591329719742885
  0.2215157111273828  0.7782108063865694  0.3080770544621408
  0.3294714436593226  0.6588042677430729  0.4571056467834462
  0.5563445181266099  0.7797708611674447  0.3060951438149093
  0.6697743758045894  0.6649928335643720  0.4562096026330794
  0.8913919283460070  0.7798471071131540  0.3081919559776643
  0.0016299575075636  0.0011157007763051  0.5738588534446040
  0.1099794220365598  0.2218184756470591  0.2694863274067661
  0.2203961757926473  0.1091682242051227  0.4197376921882545
  0.1083136530180945  0.2206623423352550  0.4947688898184414
  0.0002858799290415  0.0000655895064382  0.3453143691567241
  0.3284362857513950  0.0019695784361075  0.5783686746064796
  0.4443090477194722  0.2222057259929116  0.2706204724815766
  0.5564744105167626  0.1077570132236878  0.4205660989763989
  0.4378243458697685  0.2113218258401662  0.4929688809543024
  0.3325133730247157  0.9997690584593371  0.3478067924176860
  0.6490001002181370  0.9907407902407689  0.5742886038712093
  0.7780894666236197  0.2221535589849960  0.2708414420309795
  0.8904724516827232  0.1137635069009554  0.4172561427498394
  0.7811002931653790  0.2235763258529782  0.4923102354090756
  0.6685605542252090  0.0020355878862458  0.3456710946847812
  0.9992867110865760  0.3316475403606708  0.5743206051076947
  0.1115154313268862  0.5560902796238960  0.2707067887040893
  0.2238047741372158  0.4435912565674153  0.4195759356142154
  0.1114424178156299  0.5537350689992232  0.4943122930802653
  0.0014098237771676  0.3345348709159575  0.3458892172476123
  0.3378409125121332  0.3500112319160263  0.5772649786881682
  0.4449508114667926  0.5566780301032351  0.2704744793613083
  0.5560782743053344  0.4472579157629309  0.4160055533198279
  0.4394164191442809  0.5411102713999394  0.5000132869700358
  0.3283231140039362  0.3297085249102057  0.3455036068233391
  0.6674462359411797  0.3365340915743558  0.5741404152160301
  0.7772057683153024  0.5552651054508084  0.2711634430824582
  0.8877725160209339  0.4438468872967550  0.4181304153539090
  0.7902566402789016  0.5638218935379309  0.4934977047458328
  0.6662924220259091  0.3310038641228264  0.3462057371087422
  0.9996397024338318  0.6677048197022498  0.5738355587866799
  0.1120815477938254  0.8889945568077674  0.2700085561607268
  0.2275387165294740  0.7798177299720187  0.4212820823304143
  0.1120379941097377  0.8890518413570634  0.4986073482061979
  0.0028865115039247  0.6680669291096392  0.3461020913989706
  0.3439826574759220  0.6888153918442966  0.5695092116860255
  0.4446067188223892  0.8878623195161472  0.2708031182166552
  0.5496279075414194  0.7785531322552713  0.4175238102340951
  0.4466768964780184  0.8956014856700459  0.5046053718147522
  0.3288202884561560  0.6641168654190801  0.3464120907914915
  0.6464695631780148  0.6475157382025749  0.5754926724861394
  0.7763600676379835  0.8894209539537545  0.2694243154206121
  0.8903850320558083  0.7774959669062722  0.4181616453397096
  0.7887677564771653  0.8962491129037943  0.4909540926147449
  0.6694541444664768  0.6716191354849200  0.3449919229064477
  0.4110081199915798  0.9179522536192933  0.6339070629155068
  0.5417272287237389  0.7719356043305602  0.6508165218698334
  0.5811241671780314  0.7713602799299706  0.5229621250214017
  0.4243342594838785  0.5757233902032183  0.6377494755333779
  0.5541167611778963  0.4414266914407367  0.6612912679644699
  0.5693271118534220  0.4134016272807514  0.5390041805224872
  0.4878302022789975  0.8469085868942885  0.5911318977791669
  0.4970363631032684  0.4927193383098198  0.5981945305630990
 
  0.00000000E+00  0.00000000E+00  0.00000000E+00
  0.00000000E+00  0.00000000E+00  0.00000000E+00
  0.00000000E+00  0.00000000E+00  0.00000000E+00
  0.00000000E+00  0.00000000E+00  0.00000000E+00
  0.00000000E+00  0.00000000E+00  0.00000000E+00
  0.00000000E+00  0.00000000E+00  0.00000000E+00
  0.00000000E+00  0.00000000E+00  0.00000000E+00
  0.00000000E+00  0.00000000E+00  0.00000000E+00
  0.00000000E+00  0.00000000E+00  0.00000000E+00
  0.00000000E+00  0.00000000E+00  0.00000000E+00
  0.00000000E+00  0.00000000E+00  0.00000000E+00
  0.00000000E+00  0.00000000E+00  0.00000000E+00
  0.00000000E+00  0.00000000E+00  0.00000000E+00
  0.00000000E+00  0.00000000E+00  0.00000000E+00
  0.00000000E+00  0.00000000E+00  0.00000000E+00
  0.00000000E+00  0.00000000E+00  0.00000000E+00
  0.00000000E+00  0.00000000E+00  0.00000000E+00
  0.00000000E+00  0.00000000E+00  0.00000000E+00
  0.00000000E+00  0.00000000E+00  0.00000000E+00
  0.00000000E+00  0.00000000E+00  0.00000000E+00
  0.00000000E+00  0.00000000E+00  0.00000000E+00
  0.00000000E+00  0.00000000E+00  0.00000000E+00
  0.00000000E+00  0.00000000E+00  0.00000000E+00
  0.00000000E+00  0.00000000E+00  0.00000000E+00
  0.00000000E+00  0.00000000E+00  0.00000000E+00
  0.00000000E+00  0.00000000E+00  0.00000000E+00
  0.00000000E+00  0.00000000E+00  0.00000000E+00
  0.00000000E+00  0.00000000E+00  0.00000000E+00
  0.00000000E+00  0.00000000E+00  0.00000000E+00
  0.00000000E+00  0.00000000E+00  0.00000000E+00
  0.00000000E+00  0.00000000E+00  0.00000000E+00
  0.00000000E+00  0.00000000E+00  0.00000000E+00
  0.00000000E+00  0.00000000E+00  0.00000000E+00
  0.00000000E+00  0.00000000E+00  0.00000000E+00
  0.00000000E+00  0.00000000E+00  0.00000000E+00
  0.00000000E+00  0.00000000E+00  0.00000000E+00
  0.00000000E+00  0.00000000E+00  0.00000000E+00
  0.00000000E+00  0.00000000E+00  0.00000000E+00
  0.00000000E+00  0.00000000E+00  0.00000000E+00
  0.00000000E+00  0.00000000E+00  0.00000000E+00
  0.00000000E+00  0.00000000E+00  0.00000000E+00
  0.00000000E+00  0.00000000E+00  0.00000000E+00
  0.00000000E+00  0.00000000E+00  0.00000000E+00
  0.00000000E+00  0.00000000E+00  0.00000000E+00
  0.00000000E+00  0.00000000E+00  0.00000000E+00
  0.00000000E+00  0.00000000E+00  0.00000000E+00
  0.00000000E+00  0.00000000E+00  0.00000000E+00
  0.00000000E+00  0.00000000E+00  0.00000000E+00
  0.00000000E+00  0.00000000E+00  0.00000000E+00
  0.00000000E+00  0.00000000E+00  0.00000000E+00
  0.00000000E+00  0.00000000E+00  0.00000000E+00
  0.00000000E+00  0.00000000E+00  0.00000000E+00
  0.00000000E+00  0.00000000E+00  0.00000000E+00
  0.00000000E+00  0.00000000E+00  0.00000000E+00
  0.00000000E+00  0.00000000E+00  0.00000000E+00
  0.00000000E+00  0.00000000E+00  0.00000000E+00
  0.00000000E+00  0.00000000E+00  0.00000000E+00
  0.00000000E+00  0.00000000E+00  0.00000000E+00
  0.00000000E+00  0.00000000E+00  0.00000000E+00
  0.00000000E+00  0.00000000E+00  0.00000000E+00
  0.00000000E+00  0.00000000E+00  0.00000000E+00
  0.00000000E+00  0.00000000E+00  0.00000000E+00
  0.00000000E+00  0.00000000E+00  0.00000000E+00
  0.00000000E+00  0.00000000E+00  0.00000000E+00
  0.00000000E+00  0.00000000E+00  0.00000000E+00
  0.00000000E+00  0.00000000E+00  0.00000000E+00
  0.00000000E+00  0.00000000E+00  0.00000000E+00
  0.00000000E+00  0.00000000E+00  0.00000000E+00
  0.00000000E+00  0.00000000E+00  0.00000000E+00
  0.00000000E+00  0.00000000E+00  0.00000000E+00
  0.00000000E+00  0.00000000E+00  0.00000000E+00
