CeO2_111_33_vO-Ir-0                     
   1.00000000000000     
    11.5981998443999998    0.0000000000000000    0.0000000000000000
    -5.7990999221999999   10.0443357033999998    0.0000000000000000
     0.0000000000000000    0.0000000000000000   21.0482006073000001
  Ce              O               Ir            
    18    51     2
Direct
  0.0028678515168814  0.0002978965769475  0.4556327790794000
  0.2229922910434649  0.1094891571650135  0.3044717590329883
  0.3327527620582228  0.9983618708257000  0.4592767178894815
  0.5539747192798268  0.1092178297784001  0.3065096789976995
  0.6725171022786735  0.0022067903608486  0.4563390406278145
  0.8900769042611678  0.1118646752628855  0.3033239906437143
  0.0009115838559276  0.3327228399075151  0.4561569835200713
  0.2216942444849423  0.4432884918149269  0.3042270339375577
  0.3313386110768092  0.3267938142257725  0.4567652613174010
  0.5547817127502427  0.4444463862589390  0.3063688389711255
  0.6710767467526370  0.3322731268603575  0.4526624158302482
  0.8917581088387627  0.4456887943681026  0.3047952869312819
  0.0031538553279299  0.6661305114335389  0.4571025359379188
  0.2238198126579476  0.7780949303365895  0.3063972079457070
  0.3330540023808765  0.6594449167878657  0.4573021994494387
  0.5555247995082696  0.7773942063352821  0.3053923438543236
  0.6705084241039617  0.6674330306252493  0.4580744853445983
  0.8905199768169167  0.7791450501563245  0.3052004796661903
  0.0067179657860565  0.0044494179238562  0.5706239466956310
  0.1105010301170595  0.2226818510974480  0.2658984586779555
  0.2183419862442032  0.1060038979549234  0.4174613637429395
  0.1108131556689689  0.2202940165793296  0.4935623639451258
  0.0012767506900143  0.9999487630705944  0.3412864725229997
  0.3359940139134986  0.9910105124504478  0.5905700744595114
  0.4449357625230395  0.2219687219694338  0.2681226802446655
  0.5559508386439792  0.1056025623866940  0.4178322608494209
  0.4382943514320073  0.2115767542767726  0.4874358174608273
  0.3332036723317238  0.9996023925856654  0.3461360920155823
  0.6454160558015813  0.0044658900343923  0.5799383405774676
  0.7780530177948269  0.2235812557103978  0.2684540878020860
  0.8922501474795700  0.1124044827372823  0.4141308213953151
  0.7807505668285211  0.2237322973071158  0.4889078465445560
  0.6676474168942081  0.9990094808700597  0.3442317728927648
  0.9995416569795782  0.3287539484443715  0.5715880547689968
  0.1105005456143449  0.5552905992288286  0.2664328017561330
  0.2286604360649885  0.4434340568078242  0.4174692557648028
  0.1127748935070718  0.5509792695912922  0.4905776644224562
  0.0038325498705325  0.3361938813938968  0.3428356220365447
  0.3483021010548827  0.3436888182950989  0.5831863734304518
  0.4455291867779501  0.5545383413823747  0.2678837132340629
  0.5583771420390297  0.4460621945137059  0.4177740185039882
  0.4438336963143233  0.5386817580773053  0.5021723430410373
  0.3328178703118773  0.3300574349725888  0.3446953400814570
  0.6641936236267804  0.3499797297478248  0.5808850385857248
  0.7768866457358083  0.5548003648532714  0.2698517526271834
  0.8897131849611835  0.4445935240867913  0.4149950620603431
  0.7860216206932445  0.5611212284859871  0.4888935278369809
  0.6642103121925493  0.3300178013647196  0.3450109456410224
  0.9977728962974453  0.6708328030742846  0.5710164144761312
  0.1135394072777102  0.8897055679184774  0.2670315775970021
  0.2329931318324067  0.7805775903443996  0.4209618988885694
  0.1118644980038559  0.8872838850820449  0.4970924270476941
  0.0064334346939176  0.6698357715167887  0.3438605195971430
  0.3469589717754947  0.7040498622796449  0.5735500112637332
  0.4440622016822113  0.8885496324396495  0.2685469634174809
  0.5477300463282443  0.7739060642776637  0.4147023930278761
  0.4504214057206834  0.9035096564478896  0.5027455512188334
  0.3294641645045465  0.6623286674927699  0.3433149501008617
  0.6391441003936007  0.6188444714745701  0.5828711241916860
  0.7773503580874634  0.8895220849717848  0.2662133813249135
  0.8930374292337682  0.7795216459570824  0.4153597881799692
  0.7857828408190743  0.8934765727098745  0.4877273994386050
  0.6674648441273612  0.6694574628460233  0.3458740449651042
  0.3879696897179119  0.9419642114194957  0.6302904647740674
  0.5240134866547933  0.8077225267554958  0.6659330755833087
  0.5811457240877995  0.7809713820219395  0.5398487101867119
  0.4134834537941348  0.5673813307144616  0.6500343867711207
  0.5441530128897145  0.4406023304315433  0.6775848021992229
  0.5766120204331293  0.3779186615435350  0.5588481055212605
  0.4994764891964245  0.8499860055652588  0.5893898183112759
  0.4889106855614498  0.4907722454347652  0.6107692393223770
 
  0.00000000E+00  0.00000000E+00  0.00000000E+00
  0.00000000E+00  0.00000000E+00  0.00000000E+00
  0.00000000E+00  0.00000000E+00  0.00000000E+00
  0.00000000E+00  0.00000000E+00  0.00000000E+00
  0.00000000E+00  0.00000000E+00  0.00000000E+00
  0.00000000E+00  0.00000000E+00  0.00000000E+00
  0.00000000E+00  0.00000000E+00  0.00000000E+00
  0.00000000E+00  0.00000000E+00  0.00000000E+00
  0.00000000E+00  0.00000000E+00  0.00000000E+00
  0.00000000E+00  0.00000000E+00  0.00000000E+00
  0.00000000E+00  0.00000000E+00  0.00000000E+00
  0.00000000E+00  0.00000000E+00  0.00000000E+00
  0.00000000E+00  0.00000000E+00  0.00000000E+00
  0.00000000E+00  0.00000000E+00  0.00000000E+00
  0.00000000E+00  0.00000000E+00  0.00000000E+00
  0.00000000E+00  0.00000000E+00  0.00000000E+00
  0.00000000E+00  0.00000000E+00  0.00000000E+00
  0.00000000E+00  0.00000000E+00  0.00000000E+00
  0.00000000E+00  0.00000000E+00  0.00000000E+00
  0.00000000E+00  0.00000000E+00  0.00000000E+00
  0.00000000E+00  0.00000000E+00  0.00000000E+00
  0.00000000E+00  0.00000000E+00  0.00000000E+00
  0.00000000E+00  0.00000000E+00  0.00000000E+00
  0.00000000E+00  0.00000000E+00  0.00000000E+00
  0.00000000E+00  0.00000000E+00  0.00000000E+00
  0.00000000E+00  0.00000000E+00  0.00000000E+00
  0.00000000E+00  0.00000000E+00  0.00000000E+00
  0.00000000E+00  0.00000000E+00  0.00000000E+00
  0.00000000E+00  0.00000000E+00  0.00000000E+00
  0.00000000E+00  0.00000000E+00  0.00000000E+00
  0.00000000E+00  0.00000000E+00  0.00000000E+00
  0.00000000E+00  0.00000000E+00  0.00000000E+00
  0.00000000E+00  0.00000000E+00  0.00000000E+00
  0.00000000E+00  0.00000000E+00  0.00000000E+00
  0.00000000E+00  0.00000000E+00  0.00000000E+00
  0.00000000E+00  0.00000000E+00  0.00000000E+00
  0.00000000E+00  0.00000000E+00  0.00000000E+00
  0.00000000E+00  0.00000000E+00  0.00000000E+00
  0.00000000E+00  0.00000000E+00  0.00000000E+00
  0.00000000E+00  0.00000000E+00  0.00000000E+00
  0.00000000E+00  0.00000000E+00  0.00000000E+00
  0.00000000E+00  0.00000000E+00  0.00000000E+00
  0.00000000E+00  0.00000000E+00  0.00000000E+00
  0.00000000E+00  0.00000000E+00  0.00000000E+00
  0.00000000E+00  0.00000000E+00  0.00000000E+00
  0.00000000E+00  0.00000000E+00  0.00000000E+00
  0.00000000E+00  0.00000000E+00  0.00000000E+00
  0.00000000E+00  0.00000000E+00  0.00000000E+00
  0.00000000E+00  0.00000000E+00  0.00000000E+00
  0.00000000E+00  0.00000000E+00  0.00000000E+00
  0.00000000E+00  0.00000000E+00  0.00000000E+00
  0.00000000E+00  0.00000000E+00  0.00000000E+00
  0.00000000E+00  0.00000000E+00  0.00000000E+00
  0.00000000E+00  0.00000000E+00  0.00000000E+00
  0.00000000E+00  0.00000000E+00  0.00000000E+00
  0.00000000E+00  0.00000000E+00  0.00000000E+00
  0.00000000E+00  0.00000000E+00  0.00000000E+00
  0.00000000E+00  0.00000000E+00  0.00000000E+00
  0.00000000E+00  0.00000000E+00  0.00000000E+00
  0.00000000E+00  0.00000000E+00  0.00000000E+00
  0.00000000E+00  0.00000000E+00  0.00000000E+00
  0.00000000E+00  0.00000000E+00  0.00000000E+00
  0.00000000E+00  0.00000000E+00  0.00000000E+00
  0.00000000E+00  0.00000000E+00  0.00000000E+00
  0.00000000E+00  0.00000000E+00  0.00000000E+00
  0.00000000E+00  0.00000000E+00  0.00000000E+00
  0.00000000E+00  0.00000000E+00  0.00000000E+00
  0.00000000E+00  0.00000000E+00  0.00000000E+00
  0.00000000E+00  0.00000000E+00  0.00000000E+00
  0.00000000E+00  0.00000000E+00  0.00000000E+00
  0.00000000E+00  0.00000000E+00  0.00000000E+00
