CeO2_111_33_vO-Ir-0                     
   1.00000000000000     
    11.5981998443999998    0.0000000000000000    0.0000000000000000
    -5.7990999221999999   10.0443357033999998    0.0000000000000000
     0.0000000000000000    0.0000000000000000   21.0482006073000001
  Ce              O               Ir            
    18    51     2
Direct
  0.0020604488508158  0.0016982085892612  0.4600489274352222
  0.2221652509659794  0.1109746042211859  0.3079675024649491
  0.3305946678055200  0.0000583589084090  0.4606103074067263
  0.5556102251614617  0.1117019492226402  0.3094862017971590
  0.6762473413229860  0.0099663561613851  0.4578664421918318
  0.8893762371329266  0.1115985358754641  0.3087755895057547
  0.9983244483431228  0.3333467826074882  0.4602335024752641
  0.2216029091141263  0.4434611952816421  0.3086644026370006
  0.3284605849565572  0.3257800196964086  0.4579383560713888
  0.5556308851440923  0.4445297524907568  0.3071833021992956
  0.6676463253503533  0.3320602844737069  0.4594723729476697
  0.8885842088881740  0.4444446610606439  0.3093764561474706
  0.0023036816780035  0.6665410496395983  0.4596870423734933
  0.2215672681495639  0.7782168744958563  0.3086351095540601
  0.3226070670362589  0.6591763339411550  0.4574298518272966
  0.5560638276385488  0.7778576493807310  0.3057174434890377
  0.6735701718672732  0.6670615311764959  0.4567607370708828
  0.8890632601842088  0.7775581447053218  0.3088528433984669
  0.0006264142534543  0.0004777556072976  0.5733413863337825
  0.1112178340782601  0.2222621209680212  0.2718489720617744
  0.2203054265585606  0.1105229905714612  0.4204413535761173
  0.1069024243558210  0.2197377462139411  0.4958263336109902
  0.0002511126011419  0.0001391577924499  0.3475508758006738
  0.3316728841541121  0.0008185760093481  0.5753803858222495
  0.4431824857150366  0.2203610065271965  0.2720273428126906
  0.5563673752300000  0.1099529689249743  0.4208697484999511
  0.4379449435925231  0.2106660643390805  0.4952416517056932
  0.3324679929919879  0.0000445491387806  0.3481057262252855
  0.6522390409273826  0.9890071169922294  0.5722066652639402
  0.7776361768712114  0.2217116731804539  0.2721741628313079
  0.8892686235047945  0.1118617854495843  0.4197527505925566
  0.7809180580987850  0.2239422783249493  0.4951256251988473
  0.6682085549421942  0.0018017035957682  0.3479354115546238
  0.9995091062822629  0.3327934400578930  0.5736015913301056
  0.1121262581593784  0.5562196939637670  0.2722048643620452
  0.2227493619553091  0.4441956201625729  0.4206531674943466
  0.1091646172235010  0.5541787450600978  0.4960383450742465
  0.0005489669055177  0.3333989185422722  0.3476334169398982
  0.3374393252988886  0.3488901393136438  0.5721329879130064
  0.4433137799794228  0.5564411783163087  0.2717927687212062
  0.5540574871107389  0.4470098334300742  0.4108688457219234
  0.4355923791644714  0.5448045733306330  0.5000325298637508
  0.3286314437576892  0.3301925929440287  0.3477019092226667
  0.6673810121483783  0.3340110332328704  0.5742214414555216
  0.7792371388632777  0.5567518286182261  0.2721702454808984
  0.8885554792104059  0.4442023547560904  0.4200101863044673
  0.7927924951171562  0.5640827323576548  0.4952646429008679
  0.6676054418950343  0.3315766421646148  0.3475751900108687
  0.0000825394721942  0.6668955244917441  0.5734463885738096
  0.1114754004215157  0.8889557463814181  0.2718920621897496
  0.2231288275254449  0.7785805921564366  0.4209519951277911
  0.1110301436989877  0.8891889370576386  0.4983952938730052
  0.0009283528589532  0.6674420732830760  0.3475257646717314
  0.3487948757675147  0.6854932306287844  0.5713213441501502
  0.4440803355805494  0.8883419534612711  0.2719475871260081
  0.5522121304607935  0.7792453137201450  0.4141084453961593
  0.4440004971462704  0.8920312918068273  0.5026611691500272
  0.3307957184941085  0.6654095061726922  0.3482654526702795
  0.6450703581555944  0.6542974590599439  0.5731278031213910
  0.7775600903138732  0.8889490670664432  0.2716471623155910
  0.8894926122560036  0.7780225716931282  0.4201986263357754
  0.7905176653169498  0.8973871542802077  0.4933605701103406
  0.6697919197582416  0.6708660902202799  0.3477258156244674
  0.4151853312237292  0.9107846815266537  0.6334597742131295
  0.5485569732934221  0.7624189644796953  0.6440236176105149
  0.5753238387644587  0.7674705809654411  0.5208443136767664
  0.4270839976090189  0.5821338740888439  0.6332303662184632
  0.5563815179428840  0.4423117431488644  0.6536349875709313
  0.5706631923643813  0.4234946626766392  0.5301077933100458
  0.4867206488192177  0.8437983550157071  0.5873102771247216
  0.5001805822192283  0.4959315148036804  0.5947864741598204
 
  0.00000000E+00  0.00000000E+00  0.00000000E+00
  0.00000000E+00  0.00000000E+00  0.00000000E+00
  0.00000000E+00  0.00000000E+00  0.00000000E+00
  0.00000000E+00  0.00000000E+00  0.00000000E+00
  0.00000000E+00  0.00000000E+00  0.00000000E+00
  0.00000000E+00  0.00000000E+00  0.00000000E+00
  0.00000000E+00  0.00000000E+00  0.00000000E+00
  0.00000000E+00  0.00000000E+00  0.00000000E+00
  0.00000000E+00  0.00000000E+00  0.00000000E+00
  0.00000000E+00  0.00000000E+00  0.00000000E+00
  0.00000000E+00  0.00000000E+00  0.00000000E+00
  0.00000000E+00  0.00000000E+00  0.00000000E+00
  0.00000000E+00  0.00000000E+00  0.00000000E+00
  0.00000000E+00  0.00000000E+00  0.00000000E+00
  0.00000000E+00  0.00000000E+00  0.00000000E+00
  0.00000000E+00  0.00000000E+00  0.00000000E+00
  0.00000000E+00  0.00000000E+00  0.00000000E+00
  0.00000000E+00  0.00000000E+00  0.00000000E+00
  0.00000000E+00  0.00000000E+00  0.00000000E+00
  0.00000000E+00  0.00000000E+00  0.00000000E+00
  0.00000000E+00  0.00000000E+00  0.00000000E+00
  0.00000000E+00  0.00000000E+00  0.00000000E+00
  0.00000000E+00  0.00000000E+00  0.00000000E+00
  0.00000000E+00  0.00000000E+00  0.00000000E+00
  0.00000000E+00  0.00000000E+00  0.00000000E+00
  0.00000000E+00  0.00000000E+00  0.00000000E+00
  0.00000000E+00  0.00000000E+00  0.00000000E+00
  0.00000000E+00  0.00000000E+00  0.00000000E+00
  0.00000000E+00  0.00000000E+00  0.00000000E+00
  0.00000000E+00  0.00000000E+00  0.00000000E+00
  0.00000000E+00  0.00000000E+00  0.00000000E+00
  0.00000000E+00  0.00000000E+00  0.00000000E+00
  0.00000000E+00  0.00000000E+00  0.00000000E+00
  0.00000000E+00  0.00000000E+00  0.00000000E+00
  0.00000000E+00  0.00000000E+00  0.00000000E+00
  0.00000000E+00  0.00000000E+00  0.00000000E+00
  0.00000000E+00  0.00000000E+00  0.00000000E+00
  0.00000000E+00  0.00000000E+00  0.00000000E+00
  0.00000000E+00  0.00000000E+00  0.00000000E+00
  0.00000000E+00  0.00000000E+00  0.00000000E+00
  0.00000000E+00  0.00000000E+00  0.00000000E+00
  0.00000000E+00  0.00000000E+00  0.00000000E+00
  0.00000000E+00  0.00000000E+00  0.00000000E+00
  0.00000000E+00  0.00000000E+00  0.00000000E+00
  0.00000000E+00  0.00000000E+00  0.00000000E+00
  0.00000000E+00  0.00000000E+00  0.00000000E+00
  0.00000000E+00  0.00000000E+00  0.00000000E+00
  0.00000000E+00  0.00000000E+00  0.00000000E+00
  0.00000000E+00  0.00000000E+00  0.00000000E+00
  0.00000000E+00  0.00000000E+00  0.00000000E+00
  0.00000000E+00  0.00000000E+00  0.00000000E+00
  0.00000000E+00  0.00000000E+00  0.00000000E+00
  0.00000000E+00  0.00000000E+00  0.00000000E+00
  0.00000000E+00  0.00000000E+00  0.00000000E+00
  0.00000000E+00  0.00000000E+00  0.00000000E+00
  0.00000000E+00  0.00000000E+00  0.00000000E+00
  0.00000000E+00  0.00000000E+00  0.00000000E+00
  0.00000000E+00  0.00000000E+00  0.00000000E+00
  0.00000000E+00  0.00000000E+00  0.00000000E+00
  0.00000000E+00  0.00000000E+00  0.00000000E+00
  0.00000000E+00  0.00000000E+00  0.00000000E+00
  0.00000000E+00  0.00000000E+00  0.00000000E+00
  0.00000000E+00  0.00000000E+00  0.00000000E+00
  0.00000000E+00  0.00000000E+00  0.00000000E+00
  0.00000000E+00  0.00000000E+00  0.00000000E+00
  0.00000000E+00  0.00000000E+00  0.00000000E+00
  0.00000000E+00  0.00000000E+00  0.00000000E+00
  0.00000000E+00  0.00000000E+00  0.00000000E+00
  0.00000000E+00  0.00000000E+00  0.00000000E+00
  0.00000000E+00  0.00000000E+00  0.00000000E+00
  0.00000000E+00  0.00000000E+00  0.00000000E+00
