CeO2_111_33_vO-Ir-0                     
   1.00000000000000     
    11.5981998443999998    0.0000000000000000    0.0000000000000000
    -5.7990999221999999   10.0443357033999998    0.0000000000000000
     0.0000000000000000    0.0000000000000000   21.0482006073000001
  Ce              O               Ir            
    18    51     2
Direct
  0.9947557690204026  0.9945733934278997  0.4528131916823582
  0.2228444451962407  0.1090404707235692  0.3012440348948797
  0.3374920051065027  0.0013622252164466  0.4502311937045635
  0.5566004832170184  0.1087871728553571  0.3003874401829741
  0.6719106429218491  0.0011094981129911  0.4508794908152714
  0.8906232083762377  0.1089665004666733  0.2999422304774256
  0.9973648633535310  0.3333952832499892  0.4507907526471788
  0.2222779185112668  0.4414694703281085  0.3012801473891070
  0.3381644145295802  0.3320964161980990  0.4524065430003591
  0.5555275861454267  0.4416063400189720  0.3014323557812653
  0.6673184378968232  0.3313830792413331  0.4499396928464291
  0.8890035525165476  0.4428752417761836  0.2991311255190566
  0.9987414970565762  0.6617136932706904  0.4517953586990121
  0.2232492336361004  0.7755779681272479  0.3012646735990169
  0.3298736069938102  0.6588377793760006  0.4514346328932546
  0.5576437051919038  0.7751732875506576  0.3027624403308551
  0.6670499731464472  0.6647383193697226  0.4529288561013752
  0.8909383337501779  0.7766223021184030  0.3012617161302077
  0.0702154293866167  0.0447545858724597  0.5600551803113967
  0.1132106161348793  0.2206300684501727  0.2631604228334570
  0.2189444370071665  0.1078420974890200  0.4141101186037335
  0.1143400119696890  0.2209120534339164  0.4957158111725211
  0.9997949943651633  0.9972620390336217  0.3385155963787841
  0.3106268450665010  0.0213660258496646  0.5965217204558741
  0.4460695387890591  0.2211504086625144  0.2630838017954238
  0.5537787957459979  0.1020921291440049  0.4115424429794601
  0.4477783122388115  0.2170932674806111  0.4849873681780539
  0.3347444726455828  0.0011037750294301  0.3401233525756507
  0.6008956084057944  0.0350402859441846  0.5820491228263012
  0.7739602323101298  0.2186329978193527  0.2619446645810040
  0.8950909652322449  0.1131095910083129  0.4118213428611952
  0.7768706715323186  0.2211759626267589  0.4839147660126333
  0.6720364002055219  0.9992777963144629  0.3404956226064342
  0.0373599975998582  0.3087366029912091  0.5610736850686914
  0.1168142009729802  0.5570004278678046  0.2624102401431901
  0.2172180752350933  0.4326681263560267  0.4123511300999169
  0.1131288980265330  0.5546102216495261  0.4844574070294287
  0.9984736637727644  0.3322315495331392  0.3365352893109686
  0.3641997310266129  0.3281924421674887  0.5819818946521766
  0.4472568624840996  0.5543667376605427  0.2648592926078239
  0.5559420998425458  0.4423112620573410  0.4132176199716425
  0.4395150699632199  0.5489848401449310  0.4858211823174252
  0.3351664218156863  0.3303542696481658  0.3408332111967389
  0.7205483714409791  0.3281928621272157  0.6590409242140780
  0.7761864472781497  0.5517848904902948  0.2630906037408566
  0.8882139654480404  0.4436397089085736  0.4107214912192562
  0.7749835941562205  0.5514846392472412  0.4866020914532916
  0.6659907277642930  0.3299990774477838  0.3403665132527792
  0.0086545243296821  0.7358058575546935  0.5592050628358449
  0.1145003220111526  0.8878013902510631  0.2635680917430734
  0.2259385678847351  0.7815441997407436  0.4127393566899834
  0.1160629581591007  0.8909283751804805  0.4923894470955961
  0.0010773988770268  0.6642061404601298  0.3378030402594693
  0.3267188780043559  0.7522858965656291  0.5952780518353321
  0.4466690932007926  0.8853824505504383  0.2655259024845884
  0.5547383710947618  0.7769864941715325  0.4132404214527898
  0.4463045707144986  0.8815232060492447  0.4942091554931395
  0.3316569670211096  0.6606247119151051  0.3423815406289656
  0.6155527710379690  0.5722092059562327  0.5995925196193231
  0.7774743689209974  0.8838810411004909  0.2633625568427680
  0.8926939145640845  0.7761182998752650  0.4129634155642032
  0.7812100189528189  0.8899802736013380  0.4850890991515145
  0.6687998217004330  0.6652233908305010  0.3429061108183976
  0.3529112547900392  0.9981023885832807  0.6456691009602928
  0.5278538067821739  0.8659392880286311  0.6804269900368384
  0.5820619516685827  0.7852427382919371  0.5668107980306268
  0.3768290714506728  0.5474429298982079  0.6451805616904830
  0.4926511874974963  0.3973860731325555  0.7013892665058374
  0.6783723721433730  0.3181394013843684  0.6044812779860650
  0.4976781260583886  0.8643093514688927  0.5978371127385841
  0.4613045487067673  0.4611477115251206  0.6330313323914479
 
  0.00000000E+00  0.00000000E+00  0.00000000E+00
  0.00000000E+00  0.00000000E+00  0.00000000E+00
  0.00000000E+00  0.00000000E+00  0.00000000E+00
  0.00000000E+00  0.00000000E+00  0.00000000E+00
  0.00000000E+00  0.00000000E+00  0.00000000E+00
  0.00000000E+00  0.00000000E+00  0.00000000E+00
  0.00000000E+00  0.00000000E+00  0.00000000E+00
  0.00000000E+00  0.00000000E+00  0.00000000E+00
  0.00000000E+00  0.00000000E+00  0.00000000E+00
  0.00000000E+00  0.00000000E+00  0.00000000E+00
  0.00000000E+00  0.00000000E+00  0.00000000E+00
  0.00000000E+00  0.00000000E+00  0.00000000E+00
  0.00000000E+00  0.00000000E+00  0.00000000E+00
  0.00000000E+00  0.00000000E+00  0.00000000E+00
  0.00000000E+00  0.00000000E+00  0.00000000E+00
  0.00000000E+00  0.00000000E+00  0.00000000E+00
  0.00000000E+00  0.00000000E+00  0.00000000E+00
  0.00000000E+00  0.00000000E+00  0.00000000E+00
  0.00000000E+00  0.00000000E+00  0.00000000E+00
  0.00000000E+00  0.00000000E+00  0.00000000E+00
  0.00000000E+00  0.00000000E+00  0.00000000E+00
  0.00000000E+00  0.00000000E+00  0.00000000E+00
  0.00000000E+00  0.00000000E+00  0.00000000E+00
  0.00000000E+00  0.00000000E+00  0.00000000E+00
  0.00000000E+00  0.00000000E+00  0.00000000E+00
  0.00000000E+00  0.00000000E+00  0.00000000E+00
  0.00000000E+00  0.00000000E+00  0.00000000E+00
  0.00000000E+00  0.00000000E+00  0.00000000E+00
  0.00000000E+00  0.00000000E+00  0.00000000E+00
  0.00000000E+00  0.00000000E+00  0.00000000E+00
  0.00000000E+00  0.00000000E+00  0.00000000E+00
  0.00000000E+00  0.00000000E+00  0.00000000E+00
  0.00000000E+00  0.00000000E+00  0.00000000E+00
  0.00000000E+00  0.00000000E+00  0.00000000E+00
  0.00000000E+00  0.00000000E+00  0.00000000E+00
  0.00000000E+00  0.00000000E+00  0.00000000E+00
  0.00000000E+00  0.00000000E+00  0.00000000E+00
  0.00000000E+00  0.00000000E+00  0.00000000E+00
  0.00000000E+00  0.00000000E+00  0.00000000E+00
  0.00000000E+00  0.00000000E+00  0.00000000E+00
  0.00000000E+00  0.00000000E+00  0.00000000E+00
  0.00000000E+00  0.00000000E+00  0.00000000E+00
  0.00000000E+00  0.00000000E+00  0.00000000E+00
  0.00000000E+00  0.00000000E+00  0.00000000E+00
  0.00000000E+00  0.00000000E+00  0.00000000E+00
  0.00000000E+00  0.00000000E+00  0.00000000E+00
  0.00000000E+00  0.00000000E+00  0.00000000E+00
  0.00000000E+00  0.00000000E+00  0.00000000E+00
  0.00000000E+00  0.00000000E+00  0.00000000E+00
  0.00000000E+00  0.00000000E+00  0.00000000E+00
  0.00000000E+00  0.00000000E+00  0.00000000E+00
  0.00000000E+00  0.00000000E+00  0.00000000E+00
  0.00000000E+00  0.00000000E+00  0.00000000E+00
  0.00000000E+00  0.00000000E+00  0.00000000E+00
  0.00000000E+00  0.00000000E+00  0.00000000E+00
  0.00000000E+00  0.00000000E+00  0.00000000E+00
  0.00000000E+00  0.00000000E+00  0.00000000E+00
  0.00000000E+00  0.00000000E+00  0.00000000E+00
  0.00000000E+00  0.00000000E+00  0.00000000E+00
  0.00000000E+00  0.00000000E+00  0.00000000E+00
  0.00000000E+00  0.00000000E+00  0.00000000E+00
  0.00000000E+00  0.00000000E+00  0.00000000E+00
  0.00000000E+00  0.00000000E+00  0.00000000E+00
  0.00000000E+00  0.00000000E+00  0.00000000E+00
  0.00000000E+00  0.00000000E+00  0.00000000E+00
  0.00000000E+00  0.00000000E+00  0.00000000E+00
  0.00000000E+00  0.00000000E+00  0.00000000E+00
  0.00000000E+00  0.00000000E+00  0.00000000E+00
  0.00000000E+00  0.00000000E+00  0.00000000E+00
  0.00000000E+00  0.00000000E+00  0.00000000E+00
  0.00000000E+00  0.00000000E+00  0.00000000E+00
