CeO2_111_33_vO-Ir-0
1.0
       11.5981998444         0.0000000000         0.0000000000
       -5.7990999222        10.0443357034         0.0000000000
        0.0000000000         0.0000000000        21.0482006073
   Ce    O   Ir
   18   51    2
Direct
     0.000000000         0.000000000         0.459930000
     0.222220000         0.111110000         0.309960000
     0.333330000         0.000000000         0.459930000
     0.555560000         0.111110000         0.309960000
     0.666670000         0.000000000         0.459930000
     0.888890000         0.111110000         0.309960000
     0.000000000         0.333330000         0.459930000
     0.222220000         0.444440000         0.309960000
     0.333330000         0.333330000         0.459930000
     0.555560000         0.444440000         0.309960000
     0.666670000         0.333330000         0.459930000
     0.888890000         0.444440000         0.309960000
     0.000000000         0.666670000         0.459930000
     0.222220000         0.777780000         0.309960000
     0.333330000         0.666670000         0.459930000
     0.555560000         0.777780000         0.309960000
     0.666670000         0.666670000         0.459930000
     0.888890000         0.777780000         0.309960000
     0.000000000         0.000000000         0.572410000
     0.111110000         0.222220000         0.272470000
     0.222220000         0.111110000         0.422440000
     0.111110000         0.222220000         0.497420000
     0.000000000         0.000000000         0.347450000
     0.333330000         0.000000000         0.572410000
     0.444440000         0.222220000         0.272470000
     0.555560000         0.111110000         0.422440000
     0.444440000         0.222220000         0.497420000
     0.333330000         0.000000000         0.347450000
     0.666670000         0.000000000         0.572410000
     0.777780000         0.222220000         0.272470000
     0.888890000         0.111110000         0.422440000
     0.777780000         0.222220000         0.497420000
     0.666670000         0.000000000         0.347450000
     0.000000000         0.333330000         0.572410000
     0.111110000         0.555560000         0.272470000
     0.222220000         0.444440000         0.422440000
     0.111110000         0.555560000         0.497420000
     0.000000000         0.333330000         0.347450000
     0.333330000         0.333330000         0.572410000
     0.444440000         0.555560000         0.272470000
     0.555560000         0.444440000         0.422440000
     0.444440000         0.555560000         0.497420000
     0.333330000         0.333330000         0.347450000
     0.666670000         0.333330000         0.572410000
     0.777780000         0.555560000         0.272470000
     0.888890000         0.444440000         0.422440000
     0.777780000         0.555560000         0.497420000
     0.666670000         0.333330000         0.347450000
     0.000000000         0.666670000         0.572410000
     0.111110000         0.888890000         0.272470000
     0.222220000         0.777780000         0.422440000
     0.111110000         0.888890000         0.497420000
     0.000000000         0.666670000         0.347450000
     0.333330000         0.666670000         0.572410000
     0.444440000         0.888890000         0.272470000
     0.555560000         0.777780000         0.422440000
     0.444440000         0.888890000         0.497420000
     0.333330000         0.666670000         0.347450000
     0.666670000         0.666670000         0.572410000
     0.777780000         0.888890000         0.272470000
     0.888890000         0.777780000         0.422440000
     0.777780000         0.888890000         0.497420000
     0.666670000         0.666670000         0.347450000
     0.419950000         0.905660000         0.632220000
     0.562440000         0.763820000         0.641720000
     0.559310000         0.772770000         0.516160000
     0.424310000         0.576330000         0.634220000
     0.553130000         0.446760000         0.647090000
     0.565440000         0.436640000         0.516510000
     0.491970000         0.830620000         0.573490000
     0.491900000         0.504940000         0.578280000
