Generated by VASPKIT code               
   1.00000000000000     
    11.5982000000000003    0.0000000000000000    0.0000000000000000
    -5.7990999999999975   10.0443358381726764    0.0000000000000000
     0.0000000000000000    0.0000000000000000   21.0482000000000014
  Ce              O               Ir            
    21    72     6
Selective dynamics
Direct
  0.0004489507665847  0.9999721321232927  0.4708333184082983   T   T   T
  0.2277002719629793  0.1137080822381657  0.3126801792356279   T   T   T
  0.1111099999999965  0.2222200000000001  0.1599900000000005   F   F   F
  0.5538899417990973  0.1101253952594930  0.3159611689240285   T   T   T
  0.4444400000000002  0.2222200000000001  0.1599900000000005   F   F   F
  0.8851341270431505  0.1101405927189829  0.3117806811919202   T   T   T
  0.7777799999999999  0.2222200000000001  0.1599900000000005   F   F   F
  0.0011175876164963  0.3348569095180274  0.4702282328094313   T   T   T
  0.2265743070138868  0.4469711740277645  0.3132981013963476   T   T   T
  0.1111099999999965  0.5555599999999998  0.1599900000000005   F   F   F
  0.5541542906836655  0.4437916268916824  0.3162237701792164   T   T   T
  0.4444400000000002  0.5555599999999998  0.1599900000000005   F   F   F
  0.8863349454732102  0.4436161426972947  0.3128542080099490   T   T   T
  0.7777799999999999  0.5555599999999998  0.1599900000000005   F   F   F
  0.0009712321968032  0.6652995755580255  0.4693839589492095   T   T   T
  0.2261673511449366  0.7796679769129985  0.3140074956211885   T   T   T
  0.1111099999999965  0.8888900000000035  0.1599900000000005   F   F   F
  0.5537613385764527  0.7770465955601872  0.3161378642899517   T   T   T
  0.4444400000000002  0.8888900000000035  0.1599900000000005   F   F   F
  0.8854647539382567  0.7747638605905590  0.3119446914952805   T   T   T
  0.7777799999999999  0.8888900000000035  0.1599900000000005   F   F   F
  0.0000000000000000  0.0000000000000000  0.1225000000000023   F   F   F
  0.0019475439642044  0.0014925501332813  0.5750737089209764   T   T   T
  0.1148013143512795  0.2245201802131545  0.2749765113973539   T   T   T
  0.2525875123193731  0.1270738294837062  0.4344160352046695   T   T   T
  0.1111099999999965  0.2222200000000001  0.0475100000000026   F   F   F
  0.1331023902978627  0.2373146938887606  0.4844944989309548   T   T   T
  0.0027563998314334  0.0012157943621319  0.3485143191654249   T   T   T
  0.2222200000000001  0.1111099999999965  0.1974799999999988   F   F   F
  0.3333299999999966  0.0000000000000000  0.1225000000000023   F   F   F
  0.3425558843984953  0.0038305521892358  0.5485720977641284   T   T   T
  0.4450819447503153  0.2227366890440402  0.2754017532597158   T   T   T
  0.5437412617851834  0.1065871325411510  0.4401218655833905   T   T   T
  0.4444400000000002  0.2222200000000001  0.0475100000000026   F   F   F
  0.4547793659227432  0.2262456499077630  0.4843146183021442   T   T   T
  0.3340605019930522  0.0002142864741630  0.3589501687565281   T   T   T
  0.5555599999999998  0.1111099999999965  0.1974799999999988   F   F   F
  0.6666700000000034  0.0000000000000000  0.1225000000000023   F   F   F
  0.6693773676447379  0.0013669361366684  0.5489073349800688   T   T   T
  0.7744655064671876  0.2206573202009052  0.2757676120545792   T   T   T
  0.8629593770103797  0.1005717509854921  0.4318332412693283   T   T   T
  0.7777799999999999  0.2222200000000001  0.0475100000000026   F   F   F
  0.7505117500295110  0.2092584181786367  0.4873785415140106   T   T   T
  0.6564392097705503  0.9946406582729466  0.3583317174380349   T   T   T
  0.8888899999999964  0.1111099999999965  0.1974799999999988   F   F   F
  0.0000000000000000  0.3333299999999966  0.1225000000000023   F   F   F
  0.9997992374692515  0.3306863984316452  0.5692932787447161   T   T   T
  0.1144224809648075  0.5574600159015497  0.2750618998831693   T   T   T
  0.2494983905104101  0.4599903163604311  0.4339938508243571   T   T   T
  0.1111099999999965  0.5555599999999998  0.0475100000000026   F   F   F
  0.1352608160004311  0.5683925478208799  0.4832562038992873   T   T   T
  0.0037576402645698  0.3350156086757928  0.3509709200940006   T   T   T
  0.2222200000000001  0.4444400000000002  0.1974799999999988   F   F   F
  0.3333299999999966  0.3333299999999966  0.1225000000000023   F   F   F
  0.3464212802830334  0.3390347614199277  0.5474755694322297   T   T   T
  0.4449696238055995  0.5559305015451053  0.2754052814483063   T   T   T
  0.5445019928141216  0.4376446543080121  0.4400517382008293   T   T   T
  0.4444400000000002  0.5555599999999998  0.0475100000000026   F   F   F
  0.4534136140901037  0.5612592371850785  0.4835726957055212   T   T   T
  0.3335067864722215  0.3339113911552724  0.3592075484302649   T   T   T
  0.5555599999999998  0.4444400000000002  0.1974799999999988   F   F   F
  0.6666700000000034  0.3333299999999966  0.1225000000000023   F   F   F
  0.6673214176517107  0.3343423495037454  0.5491111992298322   T   T   T
  0.7746669691397901  0.5540312074153009  0.2758544980111393   T   T   T
  0.8647866231487790  0.4323652285614338  0.4326269479750495   T   T   T
  0.7777799999999999  0.5555599999999998  0.0475100000000026   F   F   F
  0.7511387196170122  0.5416466004472640  0.4872268735084430   T   T   T
  0.6578187692963607  0.3286617436015705  0.3583785679977613   T   T   T
  0.8888899999999964  0.4444400000000002  0.1974799999999988   F   F   F
  0.0000000000000000  0.6666700000000034  0.1225000000000023   F   F   F
  0.9987768942801657  0.6666854003989514  0.5686654952646170   T   T   T
  0.1142846660380913  0.8898717237525663  0.2750288581171824   T   T   T
  0.2493265335088728  0.7904204623472773  0.4341453175755600   T   T   T
  0.1111099999999965  0.8888900000000035  0.0475100000000026   F   F   F
  0.1362564557935912  0.8986415378901558  0.4841378280338496   T   T   T
  0.0039473093140986  0.6690644718864426  0.3509944285580636   T   T   T
  0.2222200000000001  0.7777799999999999  0.1974799999999988   F   F   F
  0.3333299999999966  0.6666700000000034  0.1225000000000023   F   F   F
  0.3409337776195331  0.6714585827721286  0.5467087491204047   T   T   T
  0.4449207829676907  0.8888615302047508  0.2753076226767222   T   T   T
  0.5427395079458884  0.7711525501408529  0.4392207966623448   T   T   T
  0.4444400000000002  0.8888900000000035  0.0475100000000026   F   F   F
  0.4538328085769344  0.8933797688063694  0.4830697704754832   T   T   T
  0.3345709939627057  0.6672695327146622  0.3602438000275863   T   T   T
  0.5555599999999998  0.7777799999999999  0.1974799999999988   F   F   F
  0.6666699999999963  0.6666700000000034  0.1225000000000023   F   F   F
  0.6681829934864015  0.6666868164485797  0.5487350151322890   T   T   T
  0.7739036059746360  0.8868618396096190  0.2757149462724671   T   T   T
  0.8619362650875638  0.7617802350559897  0.4320037135777731   T   T   T
  0.7777799999999999  0.8888900000000035  0.0475100000000026   F   F   F
  0.7473227009672039  0.8734193886598765  0.4876578825409880   T   T   T
  0.6568895134043640  0.6622932432136965  0.3584244157430319   T   T   T
  0.8888899999999964  0.7777799999999999  0.1974799999999988   F   F   F
  0.3417934151715900  0.0039500697251378  0.4623784356203388   T   T   T
  0.6542591765217947  0.9945198580443602  0.4630258309119255   T   T   T
  0.3418662173675093  0.3376262244466498  0.4617349322958070   T   T   T
  0.6564044855698414  0.3286501840232960  0.4633599460706878   T   T   T
  0.3401653101438666  0.6684934967136996  0.4606757004490677   T   T   T
  0.6557297816634078  0.6604697297692325  0.4629183054689153   T   T   T
 
  0.00000000E+00  0.00000000E+00  0.00000000E+00
  0.00000000E+00  0.00000000E+00  0.00000000E+00
  0.00000000E+00  0.00000000E+00  0.00000000E+00
  0.00000000E+00  0.00000000E+00  0.00000000E+00
  0.00000000E+00  0.00000000E+00  0.00000000E+00
  0.00000000E+00  0.00000000E+00  0.00000000E+00
  0.00000000E+00  0.00000000E+00  0.00000000E+00
  0.00000000E+00  0.00000000E+00  0.00000000E+00
  0.00000000E+00  0.00000000E+00  0.00000000E+00
  0.00000000E+00  0.00000000E+00  0.00000000E+00
  0.00000000E+00  0.00000000E+00  0.00000000E+00
  0.00000000E+00  0.00000000E+00  0.00000000E+00
  0.00000000E+00  0.00000000E+00  0.00000000E+00
  0.00000000E+00  0.00000000E+00  0.00000000E+00
  0.00000000E+00  0.00000000E+00  0.00000000E+00
  0.00000000E+00  0.00000000E+00  0.00000000E+00
  0.00000000E+00  0.00000000E+00  0.00000000E+00
  0.00000000E+00  0.00000000E+00  0.00000000E+00
  0.00000000E+00  0.00000000E+00  0.00000000E+00
  0.00000000E+00  0.00000000E+00  0.00000000E+00
  0.00000000E+00  0.00000000E+00  0.00000000E+00
  0.00000000E+00  0.00000000E+00  0.00000000E+00
  0.00000000E+00  0.00000000E+00  0.00000000E+00
  0.00000000E+00  0.00000000E+00  0.00000000E+00
  0.00000000E+00  0.00000000E+00  0.00000000E+00
  0.00000000E+00  0.00000000E+00  0.00000000E+00
  0.00000000E+00  0.00000000E+00  0.00000000E+00
  0.00000000E+00  0.00000000E+00  0.00000000E+00
  0.00000000E+00  0.00000000E+00  0.00000000E+00
  0.00000000E+00  0.00000000E+00  0.00000000E+00
  0.00000000E+00  0.00000000E+00  0.00000000E+00
  0.00000000E+00  0.00000000E+00  0.00000000E+00
  0.00000000E+00  0.00000000E+00  0.00000000E+00
  0.00000000E+00  0.00000000E+00  0.00000000E+00
  0.00000000E+00  0.00000000E+00  0.00000000E+00
  0.00000000E+00  0.00000000E+00  0.00000000E+00
  0.00000000E+00  0.00000000E+00  0.00000000E+00
  0.00000000E+00  0.00000000E+00  0.00000000E+00
  0.00000000E+00  0.00000000E+00  0.00000000E+00
  0.00000000E+00  0.00000000E+00  0.00000000E+00
  0.00000000E+00  0.00000000E+00  0.00000000E+00
  0.00000000E+00  0.00000000E+00  0.00000000E+00
  0.00000000E+00  0.00000000E+00  0.00000000E+00
  0.00000000E+00  0.00000000E+00  0.00000000E+00
  0.00000000E+00  0.00000000E+00  0.00000000E+00
  0.00000000E+00  0.00000000E+00  0.00000000E+00
  0.00000000E+00  0.00000000E+00  0.00000000E+00
  0.00000000E+00  0.00000000E+00  0.00000000E+00
  0.00000000E+00  0.00000000E+00  0.00000000E+00
  0.00000000E+00  0.00000000E+00  0.00000000E+00
  0.00000000E+00  0.00000000E+00  0.00000000E+00
  0.00000000E+00  0.00000000E+00  0.00000000E+00
  0.00000000E+00  0.00000000E+00  0.00000000E+00
  0.00000000E+00  0.00000000E+00  0.00000000E+00
  0.00000000E+00  0.00000000E+00  0.00000000E+00
  0.00000000E+00  0.00000000E+00  0.00000000E+00
  0.00000000E+00  0.00000000E+00  0.00000000E+00
  0.00000000E+00  0.00000000E+00  0.00000000E+00
  0.00000000E+00  0.00000000E+00  0.00000000E+00
  0.00000000E+00  0.00000000E+00  0.00000000E+00
  0.00000000E+00  0.00000000E+00  0.00000000E+00
  0.00000000E+00  0.00000000E+00  0.00000000E+00
  0.00000000E+00  0.00000000E+00  0.00000000E+00
  0.00000000E+00  0.00000000E+00  0.00000000E+00
  0.00000000E+00  0.00000000E+00  0.00000000E+00
  0.00000000E+00  0.00000000E+00  0.00000000E+00
  0.00000000E+00  0.00000000E+00  0.00000000E+00
  0.00000000E+00  0.00000000E+00  0.00000000E+00
  0.00000000E+00  0.00000000E+00  0.00000000E+00
  0.00000000E+00  0.00000000E+00  0.00000000E+00
  0.00000000E+00  0.00000000E+00  0.00000000E+00
  0.00000000E+00  0.00000000E+00  0.00000000E+00
  0.00000000E+00  0.00000000E+00  0.00000000E+00
  0.00000000E+00  0.00000000E+00  0.00000000E+00
  0.00000000E+00  0.00000000E+00  0.00000000E+00
  0.00000000E+00  0.00000000E+00  0.00000000E+00
  0.00000000E+00  0.00000000E+00  0.00000000E+00
  0.00000000E+00  0.00000000E+00  0.00000000E+00
  0.00000000E+00  0.00000000E+00  0.00000000E+00
  0.00000000E+00  0.00000000E+00  0.00000000E+00
  0.00000000E+00  0.00000000E+00  0.00000000E+00
  0.00000000E+00  0.00000000E+00  0.00000000E+00
  0.00000000E+00  0.00000000E+00  0.00000000E+00
  0.00000000E+00  0.00000000E+00  0.00000000E+00
  0.00000000E+00  0.00000000E+00  0.00000000E+00
  0.00000000E+00  0.00000000E+00  0.00000000E+00
  0.00000000E+00  0.00000000E+00  0.00000000E+00
  0.00000000E+00  0.00000000E+00  0.00000000E+00
  0.00000000E+00  0.00000000E+00  0.00000000E+00
  0.00000000E+00  0.00000000E+00  0.00000000E+00
  0.00000000E+00  0.00000000E+00  0.00000000E+00
  0.00000000E+00  0.00000000E+00  0.00000000E+00
  0.00000000E+00  0.00000000E+00  0.00000000E+00
  0.00000000E+00  0.00000000E+00  0.00000000E+00
  0.00000000E+00  0.00000000E+00  0.00000000E+00
  0.00000000E+00  0.00000000E+00  0.00000000E+00
  0.00000000E+00  0.00000000E+00  0.00000000E+00
  0.00000000E+00  0.00000000E+00  0.00000000E+00
  0.00000000E+00  0.00000000E+00  0.00000000E+00
