Generated by VASPKIT code               
   1.00000000000000     
    11.5982000000000003    0.0000000000000000    0.0000000000000000
    -5.7990999999999975   10.0443358381726764    0.0000000000000000
     0.0000000000000000    0.0000000000000000   21.0482000000000014
  Ce              O               Ir            
    21    72     6
Selective dynamics
Direct
  0.0000324450123828  0.9999059670822380  0.4732608468890375   T   T   T
  0.2145705443180136  0.1076619818961853  0.3129110295188884   T   T   T
  0.1111099999999965  0.2222200000000001  0.1599900000000005   F   F   F
  0.5519873273179265  0.1101388419921044  0.3108179751805695   T   T   T
  0.4444400000000002  0.2222200000000001  0.1599900000000005   F   F   F
  0.8876529711843565  0.1108595794104434  0.3188171600967303   T   T   T
  0.7777799999999999  0.2222200000000001  0.1599900000000005   F   F   F
  0.0002697674516410  0.3321022261931160  0.4732246115957235   T   T   T
  0.2138020682603599  0.4385200098862720  0.3129495135616323   T   T   T
  0.1111099999999965  0.5555599999999998  0.1599900000000005   F   F   F
  0.5508948118241358  0.4428476431686015  0.3111605526721895   T   T   T
  0.4444400000000002  0.5555599999999998  0.1599900000000005   F   F   F
  0.8874064151737847  0.4435555224394382  0.3188629862925640   T   T   T
  0.7777799999999999  0.5555599999999998  0.1599900000000005   F   F   F
  0.9991410830530560  0.6655960948764104  0.4743328575868535   T   T   T
  0.2139171458156941  0.7732146566400541  0.3128774005677667   T   T   T
  0.1111099999999965  0.8888900000000035  0.1599900000000005   F   F   F
  0.5517498472556271  0.7769010593378225  0.3109152624753130   T   T   T
  0.4444400000000002  0.8888900000000035  0.1599900000000005   F   F   F
  0.8873679598181140  0.7774586802523178  0.3190291161026813   T   T   T
  0.7777799999999999  0.8888900000000035  0.1599900000000005   F   F   F
  0.0000000000000000  0.0000000000000000  0.1225000000000023   F   F   F
  0.9976827419887059  0.9962896304535228  0.5624986721955180   T   T   T
  0.1060120411359801  0.2188843639348309  0.2769673341216717   T   T   T
  0.2714367593371389  0.1297652044054063  0.4309086202875330   T   T   T
  0.1111099999999965  0.2222200000000001  0.0475100000000026   F   F   F
  0.1484271375355188  0.2401609267237031  0.4512822356401403   T   T   T
  0.0014420493958761  0.0004184692175269  0.3557965849109235   T   T   T
  0.2222200000000001  0.1111099999999965  0.1974799999999988   F   F   F
  0.3333299999999966  0.0000000000000000  0.1225000000000023   F   F   F
  0.3572084082188944  0.0118165563115727  0.5336277895826802   T   T   T
  0.4406144617166615  0.2200804918669474  0.2737519614857097   T   T   T
  0.5250568018728451  0.0927011431209378  0.4224743993053685   T   T   T
  0.4444400000000002  0.2222200000000001  0.0475100000000026   F   F   F
  0.4757054025095928  0.2493919307044652  0.4805070838570260   T   T   T
  0.3266668385470174  0.9934573563884207  0.3492002417964609   T   T   T
  0.5555599999999998  0.1111099999999965  0.1974799999999988   F   F   F
  0.6666700000000034  0.0000000000000000  0.1225000000000023   F   F   F
  0.6901276426363080  0.9967965363124841  0.5369062307326292   T   T   T
  0.7750788289584801  0.2218995170085354  0.2792569357644876   T   T   T
  0.8667268126172262  0.0986528391396124  0.4319500003267543   T   T   T
  0.7777799999999999  0.2222200000000001  0.0475100000000026   F   F   F
  0.7433462247543822  0.2056859346658919  0.4658709568617934   T   T   T
  0.6563445163200474  0.9994141345309464  0.3574948884873309   T   T   T
  0.8888899999999964  0.1111099999999965  0.1974799999999988   F   F   F
  0.0000000000000000  0.3333299999999966  0.1225000000000023   F   F   F
  0.9946230667713588  0.3224823105477278  0.5637378234265725   T   T   T
  0.1050483576113292  0.5533271168105492  0.2765705916396201   T   T   T
  0.2681723622848382  0.4635639465241737  0.4303366748370600   T   T   T
  0.1111099999999965  0.5555599999999998  0.0475100000000026   F   F   F
  0.1463692718656772  0.5720123756666569  0.4518012392124336   T   T   T
  0.0002686142581468  0.3339921183366242  0.3553363202208003   T   T   T
  0.2222200000000001  0.4444400000000002  0.1974799999999988   F   F   F
  0.3333299999999966  0.3333299999999966  0.1225000000000023   F   F   F
  0.3557740907642998  0.3460962715912064  0.5346897979277868   T   T   T
  0.4415184400920454  0.5538134990194135  0.2737797014200634   T   T   T
  0.5291956474738485  0.4254066582915727  0.4224197874123850   T   T   T
  0.4444400000000002  0.5555599999999998  0.0475100000000026   F   F   F
  0.4817375319775888  0.5827047839806396  0.4773622798305140   T   T   T
  0.3275452264911325  0.3268352795357816  0.3499276219063735   T   T   T
  0.5555599999999998  0.4444400000000002  0.1974799999999988   F   F   F
  0.6666700000000034  0.3333299999999966  0.1225000000000023   F   F   F
  0.6888605849558510  0.3321663426562673  0.5378559707224663   T   T   T
  0.7758067667379756  0.5567035593158193  0.2794981855082734   T   T   T
  0.8656527057091573  0.4309946711811214  0.4328244371783210   T   T   T
  0.7777799999999999  0.5555599999999998  0.0475100000000026   F   F   F
  0.7430824279964203  0.5439088687279867  0.4649413059138980   T   T   T
  0.6553535529253290  0.3321975580368095  0.3567024621898960   T   T   T
  0.8888899999999964  0.4444400000000002  0.1974799999999988   F   F   F
  0.0000000000000000  0.6666700000000034  0.1225000000000023   F   F   F
  0.9926586535368478  0.6589903312987172  0.5630663290640938   T   T   T
  0.1052736647728725  0.8866383321207091  0.2772371483527408   T   T   T
  0.2717757729814703  0.7980953730501766  0.4297891645662658   T   T   T
  0.1111099999999965  0.8888900000000035  0.0475100000000026   F   F   F
  0.1463533276139731  0.9034309957184989  0.4513734520678764   T   T   T
  0.0005376914776021  0.6673578728183918  0.3557787850704141   T   T   T
  0.2222200000000001  0.7777799999999999  0.1974799999999988   F   F   F
  0.3333299999999966  0.6666700000000034  0.1225000000000023   F   F   F
  0.3568531154991836  0.6775534256935933  0.5328918894671332   T   T   T
  0.4415212486161649  0.8870766979488031  0.2740590203954289   T   T   T
  0.5226543992006246  0.7650779754270226  0.4245923505348177   T   T   T
  0.4444400000000002  0.8888900000000035  0.0475100000000026   F   F   F
  0.4778436332735352  0.9179624916706348  0.4830053502779628   T   T   T
  0.3263988267373151  0.6601814685945978  0.3490204810954989   T   T   T
  0.5555599999999998  0.7777799999999999  0.1974799999999988   F   F   F
  0.6666699999999963  0.6666700000000034  0.1225000000000023   F   F   F
  0.6896469979312996  0.6708528869287099  0.5416580829979759   T   T   T
  0.7754231588784075  0.8884880994573143  0.2798574358076127   T   T   T
  0.8698478553950661  0.7675382735961243  0.4325738760740784   T   T   T
  0.7777799999999999  0.8888900000000035  0.0475100000000026   F   F   F
  0.7419664718813893  0.8714401685469164  0.4652512249853089   T   T   T
  0.6556876310279544  0.6657866726826964  0.3571165113682843   T   T   T
  0.8888899999999964  0.7777799999999999  0.1974799999999988   F   F   F
  0.3367177289052072  0.9854785676623342  0.4513359690705964   T   T   T
  0.6606546056992955  0.0230661551013541  0.4572994131117867   T   T   T
  0.3374959265767919  0.3149371990752152  0.4502655931938104   T   T   T
  0.6617046742556789  0.3582925491680272  0.4554867848353772   T   T   T
  0.3343912578394092  0.6525278597537126  0.4518786936585332   T   T   T
  0.6652146891274046  0.6889177654019496  0.4573371613402090   T   T   T
 
  0.00000000E+00  0.00000000E+00  0.00000000E+00
  0.00000000E+00  0.00000000E+00  0.00000000E+00
  0.00000000E+00  0.00000000E+00  0.00000000E+00
  0.00000000E+00  0.00000000E+00  0.00000000E+00
  0.00000000E+00  0.00000000E+00  0.00000000E+00
  0.00000000E+00  0.00000000E+00  0.00000000E+00
  0.00000000E+00  0.00000000E+00  0.00000000E+00
  0.00000000E+00  0.00000000E+00  0.00000000E+00
  0.00000000E+00  0.00000000E+00  0.00000000E+00
  0.00000000E+00  0.00000000E+00  0.00000000E+00
  0.00000000E+00  0.00000000E+00  0.00000000E+00
  0.00000000E+00  0.00000000E+00  0.00000000E+00
  0.00000000E+00  0.00000000E+00  0.00000000E+00
  0.00000000E+00  0.00000000E+00  0.00000000E+00
  0.00000000E+00  0.00000000E+00  0.00000000E+00
  0.00000000E+00  0.00000000E+00  0.00000000E+00
  0.00000000E+00  0.00000000E+00  0.00000000E+00
  0.00000000E+00  0.00000000E+00  0.00000000E+00
  0.00000000E+00  0.00000000E+00  0.00000000E+00
  0.00000000E+00  0.00000000E+00  0.00000000E+00
  0.00000000E+00  0.00000000E+00  0.00000000E+00
  0.00000000E+00  0.00000000E+00  0.00000000E+00
  0.00000000E+00  0.00000000E+00  0.00000000E+00
  0.00000000E+00  0.00000000E+00  0.00000000E+00
  0.00000000E+00  0.00000000E+00  0.00000000E+00
  0.00000000E+00  0.00000000E+00  0.00000000E+00
  0.00000000E+00  0.00000000E+00  0.00000000E+00
  0.00000000E+00  0.00000000E+00  0.00000000E+00
  0.00000000E+00  0.00000000E+00  0.00000000E+00
  0.00000000E+00  0.00000000E+00  0.00000000E+00
  0.00000000E+00  0.00000000E+00  0.00000000E+00
  0.00000000E+00  0.00000000E+00  0.00000000E+00
  0.00000000E+00  0.00000000E+00  0.00000000E+00
  0.00000000E+00  0.00000000E+00  0.00000000E+00
  0.00000000E+00  0.00000000E+00  0.00000000E+00
  0.00000000E+00  0.00000000E+00  0.00000000E+00
  0.00000000E+00  0.00000000E+00  0.00000000E+00
  0.00000000E+00  0.00000000E+00  0.00000000E+00
  0.00000000E+00  0.00000000E+00  0.00000000E+00
  0.00000000E+00  0.00000000E+00  0.00000000E+00
  0.00000000E+00  0.00000000E+00  0.00000000E+00
  0.00000000E+00  0.00000000E+00  0.00000000E+00
  0.00000000E+00  0.00000000E+00  0.00000000E+00
  0.00000000E+00  0.00000000E+00  0.00000000E+00
  0.00000000E+00  0.00000000E+00  0.00000000E+00
  0.00000000E+00  0.00000000E+00  0.00000000E+00
  0.00000000E+00  0.00000000E+00  0.00000000E+00
  0.00000000E+00  0.00000000E+00  0.00000000E+00
  0.00000000E+00  0.00000000E+00  0.00000000E+00
  0.00000000E+00  0.00000000E+00  0.00000000E+00
  0.00000000E+00  0.00000000E+00  0.00000000E+00
  0.00000000E+00  0.00000000E+00  0.00000000E+00
  0.00000000E+00  0.00000000E+00  0.00000000E+00
  0.00000000E+00  0.00000000E+00  0.00000000E+00
  0.00000000E+00  0.00000000E+00  0.00000000E+00
  0.00000000E+00  0.00000000E+00  0.00000000E+00
  0.00000000E+00  0.00000000E+00  0.00000000E+00
  0.00000000E+00  0.00000000E+00  0.00000000E+00
  0.00000000E+00  0.00000000E+00  0.00000000E+00
  0.00000000E+00  0.00000000E+00  0.00000000E+00
  0.00000000E+00  0.00000000E+00  0.00000000E+00
  0.00000000E+00  0.00000000E+00  0.00000000E+00
  0.00000000E+00  0.00000000E+00  0.00000000E+00
  0.00000000E+00  0.00000000E+00  0.00000000E+00
  0.00000000E+00  0.00000000E+00  0.00000000E+00
  0.00000000E+00  0.00000000E+00  0.00000000E+00
  0.00000000E+00  0.00000000E+00  0.00000000E+00
  0.00000000E+00  0.00000000E+00  0.00000000E+00
  0.00000000E+00  0.00000000E+00  0.00000000E+00
  0.00000000E+00  0.00000000E+00  0.00000000E+00
  0.00000000E+00  0.00000000E+00  0.00000000E+00
  0.00000000E+00  0.00000000E+00  0.00000000E+00
  0.00000000E+00  0.00000000E+00  0.00000000E+00
  0.00000000E+00  0.00000000E+00  0.00000000E+00
  0.00000000E+00  0.00000000E+00  0.00000000E+00
  0.00000000E+00  0.00000000E+00  0.00000000E+00
  0.00000000E+00  0.00000000E+00  0.00000000E+00
  0.00000000E+00  0.00000000E+00  0.00000000E+00
  0.00000000E+00  0.00000000E+00  0.00000000E+00
  0.00000000E+00  0.00000000E+00  0.00000000E+00
  0.00000000E+00  0.00000000E+00  0.00000000E+00
  0.00000000E+00  0.00000000E+00  0.00000000E+00
  0.00000000E+00  0.00000000E+00  0.00000000E+00
  0.00000000E+00  0.00000000E+00  0.00000000E+00
  0.00000000E+00  0.00000000E+00  0.00000000E+00
  0.00000000E+00  0.00000000E+00  0.00000000E+00
  0.00000000E+00  0.00000000E+00  0.00000000E+00
  0.00000000E+00  0.00000000E+00  0.00000000E+00
  0.00000000E+00  0.00000000E+00  0.00000000E+00
  0.00000000E+00  0.00000000E+00  0.00000000E+00
  0.00000000E+00  0.00000000E+00  0.00000000E+00
  0.00000000E+00  0.00000000E+00  0.00000000E+00
  0.00000000E+00  0.00000000E+00  0.00000000E+00
  0.00000000E+00  0.00000000E+00  0.00000000E+00
  0.00000000E+00  0.00000000E+00  0.00000000E+00
  0.00000000E+00  0.00000000E+00  0.00000000E+00
  0.00000000E+00  0.00000000E+00  0.00000000E+00
  0.00000000E+00  0.00000000E+00  0.00000000E+00
  0.00000000E+00  0.00000000E+00  0.00000000E+00
