Generated by VASPKIT code               
   1.00000000000000     
    11.5982000000000003    0.0000000000000000    0.0000000000000000
    -5.7990999999999975   10.0443358381726764    0.0000000000000000
     0.0000000000000000    0.0000000000000000   21.0482000000000014
  Ce              O               Ir            
    21    72     6
Selective dynamics
Direct
  0.0245684909967506  0.0224057759064921  0.4682301940743821   T   T   T
  0.2186914730875710  0.1086145758831449  0.3086428135037069   T   T   T
  0.1111099999999965  0.2222200000000001  0.1599900000000005   F   F   F
  0.5563344592228155  0.1117621692957363  0.3169402824183968   T   T   T
  0.4444400000000002  0.2222200000000001  0.1599900000000005   F   F   F
  0.8936658052941693  0.1137650614723135  0.3145329468358027   T   T   T
  0.7777799999999999  0.2222200000000001  0.1599900000000005   F   F   F
  0.9958100427403450  0.3305124174458124  0.4775914549312048   T   T   T
  0.2186547827576529  0.4427669425687925  0.3118583068327943   T   T   T
  0.1111099999999965  0.5555599999999998  0.1599900000000005   F   F   F
  0.5579658800004492  0.4504115917902170  0.3133243170639903   T   T   T
  0.4444400000000002  0.5555599999999998  0.1599900000000005   F   F   F
  0.8932874877013454  0.4465016793466032  0.3122380278478123   T   T   T
  0.7777799999999999  0.5555599999999998  0.1599900000000005   F   F   F
  0.0213798327385379  0.6720256350671039  0.4644828289677548   T   T   T
  0.2209016655417748  0.7777377269709803  0.3085205589003541   T   T   T
  0.1111099999999965  0.8888900000000035  0.1599900000000005   F   F   F
  0.5575482234318784  0.7748548723651276  0.3138068974949719   T   T   T
  0.4444400000000002  0.8888900000000035  0.1599900000000005   F   F   F
  0.8873585212601915  0.7781974140547757  0.3118663593732509   T   T   T
  0.7777799999999999  0.8888900000000035  0.1599900000000005   F   F   F
  0.0000000000000000  0.0000000000000000  0.1225000000000023   F   F   F
  0.0152368251894730  0.9611831794626308  0.5530337565742360   T   T   T
  0.1085748204379516  0.2191866794854866  0.2726776655500688   T   T   T
  0.2741712367804667  0.1408701373561077  0.4333897537023254   T   T   T
  0.1111099999999965  0.2222200000000001  0.0475100000000026   F   F   F
  0.1467914255118505  0.2604509346629784  0.4265129528049614   T   T   T
  0.0045456365305771  0.0000833557989672  0.3490820999587629   T   T   T
  0.2222200000000001  0.1111099999999965  0.1974799999999988   F   F   F
  0.3333299999999966  0.0000000000000000  0.1225000000000023   F   F   F
  0.3146417087446416  0.9959062875370920  0.5320995781961962   T   T   T
  0.4584054537997682  0.2254253536176415  0.2779214161779142   T   T   T
  0.4870550342327776  0.0867801871043582  0.4279436262559874   T   T   T
  0.4444400000000002  0.2222200000000001  0.0475100000000026   F   F   F
  0.5638704065712442  0.2819386071310385  0.4973715390517400   T   T   T
  0.3231484844870696  0.9943755492322414  0.3448190839593681   T   T   T
  0.5555599999999998  0.1111099999999965  0.1974799999999988   F   F   F
  0.6666700000000034  0.0000000000000000  0.1225000000000023   F   F   F
  0.8173064570805435  0.1243756725757948  0.5355529838958770   T   T   T
  0.7679145911184896  0.2165095514559292  0.2799435577873499   T   T   T
  0.8992256964086324  0.1136168493892889  0.4256789775233631   T   T   T
  0.7777799999999999  0.2222200000000001  0.0475100000000026   F   F   F
  0.7326250983830627  0.1991990972527795  0.4350487994036729   T   T   T
  0.6706705778084978  0.9876245260592348  0.3712786361175449   T   T   T
  0.8888899999999964  0.1111099999999965  0.1974799999999988   F   F   F
  0.0000000000000000  0.3333299999999966  0.1225000000000023   F   F   F
  0.1086430613443497  0.3224606274304821  0.5414068908561237   T   T   T
  0.1096999142317309  0.5564056400353159  0.2721648555211972   T   T   T
  0.3383503144358114  0.5041119360114082  0.4250019188737860   T   T   T
  0.1111099999999965  0.5555599999999998  0.0475100000000026   F   F   F
  0.1478712582511720  0.5559651085299065  0.4433695825700434   T   T   T
  0.0040506639387824  0.3365143532994220  0.3455313998563126   T   T   T
  0.2222200000000001  0.4444400000000002  0.1974799999999988   F   F   F
  0.3333299999999966  0.3333299999999966  0.1225000000000023   F   F   F
  0.3234724204913703  0.3309697637254799  0.5276148770935302   T   T   T
  0.4435993831442013  0.5577138460373049  0.2753970722199487   T   T   T
  0.5048768509039097  0.4103957012427089  0.4257330916488815   T   T   T
  0.4444400000000002  0.5555599999999998  0.0475100000000026   F   F   F
  0.5718966342547134  0.6176041058883258  0.4904134499061423   T   T   T
  0.3297769244581997  0.3288383341912717  0.3421003515521195   T   T   T
  0.5555599999999998  0.4444400000000002  0.1974799999999988   F   F   F
  0.6666700000000034  0.3333299999999966  0.1225000000000023   F   F   F
  0.8249039971892683  0.3684402402052044  0.5322324126787199   T   T   T
  0.7775891486680703  0.5507478670519994  0.2756360806808842   T   T   T
  0.9033540670259723  0.4539747678739467  0.4219822811826564   T   T   T
  0.7777799999999999  0.5555599999999998  0.0475100000000026   F   F   F
  0.7670874287854237  0.5515203464623165  0.4750149834689253   T   T   T
  0.6725404748765234  0.3486406357281020  0.3698890125075343   T   T   T
  0.8888899999999964  0.4444400000000002  0.1974799999999988   F   F   F
  0.0000000000000000  0.6666700000000034  0.1225000000000023   F   F   F
  0.0048763807387460  0.6325555677197087  0.5535927006452195   T   T   T
  0.1075053289044369  0.8877289279401630  0.2713564870932764   T   T   T
  0.2799534895116905  0.8062309513017987  0.4376123856785510   T   T   T
  0.1111099999999965  0.8888900000000035  0.0475100000000026   F   F   F
  0.1315156513687380  0.9011414753665642  0.4291834339979541   T   T   T
  0.0068164722377681  0.6731545686255966  0.3487990487015973   T   T   T
  0.2222200000000001  0.7777799999999999  0.1974799999999988   F   F   F
  0.3333299999999966  0.6666700000000034  0.1225000000000023   F   F   F
  0.3497943294253334  0.6762058065985868  0.5336728111890789   T   T   T
  0.4575758861312527  0.8973240079730072  0.2782285001534217   T   T   T
  0.5044989761973390  0.7605333035957644  0.4260444607378954   T   T   T
  0.4444400000000002  0.8888900000000035  0.0475100000000026   F   F   F
  0.5554999202125473  0.9540331634962187  0.4944783568040528   T   T   T
  0.3218131886588322  0.6650110285069448  0.3470707955602327   T   T   T
  0.5555599999999998  0.7777799999999999  0.1974799999999988   F   F   F
  0.6666699999999963  0.6666700000000034  0.1225000000000023   F   F   F
  0.8016369495507992  0.7224751765249005  0.5730238092082112   T   T   T
  0.7767452532700169  0.8944175570715699  0.2759294842164418   T   T   T
  0.8859610726862593  0.7817745519768549  0.4358650782675557   T   T   T
  0.7777799999999999  0.8888900000000035  0.0475100000000026   F   F   F
  0.7615098559154307  0.8814687499868983  0.4866016341654434   T   T   T
  0.6701052487865171  0.6691734215005092  0.3456082886284904   T   T   T
  0.8888899999999964  0.7777799999999999  0.1974799999999988   F   F   F
  0.3134732404116186  0.9922007437055660  0.4490626122265504   T   T   T
  0.7204775087843719  0.0329881141737137  0.4674573214004741   T   T   T
  0.3277250018627555  0.3334973643930837  0.4446563439217064   T   T   T
  0.7233812395344764  0.3579570656797595  0.4639434810063526   T   T   T
  0.3326050512136129  0.6640042764363517  0.4508717853893631   T   T   T
  0.7457668534062272  0.7054202265800442  0.4959788554294211   T   T   T
 
  0.00000000E+00  0.00000000E+00  0.00000000E+00
  0.00000000E+00  0.00000000E+00  0.00000000E+00
  0.00000000E+00  0.00000000E+00  0.00000000E+00
  0.00000000E+00  0.00000000E+00  0.00000000E+00
  0.00000000E+00  0.00000000E+00  0.00000000E+00
  0.00000000E+00  0.00000000E+00  0.00000000E+00
  0.00000000E+00  0.00000000E+00  0.00000000E+00
  0.00000000E+00  0.00000000E+00  0.00000000E+00
  0.00000000E+00  0.00000000E+00  0.00000000E+00
  0.00000000E+00  0.00000000E+00  0.00000000E+00
  0.00000000E+00  0.00000000E+00  0.00000000E+00
  0.00000000E+00  0.00000000E+00  0.00000000E+00
  0.00000000E+00  0.00000000E+00  0.00000000E+00
  0.00000000E+00  0.00000000E+00  0.00000000E+00
  0.00000000E+00  0.00000000E+00  0.00000000E+00
  0.00000000E+00  0.00000000E+00  0.00000000E+00
  0.00000000E+00  0.00000000E+00  0.00000000E+00
  0.00000000E+00  0.00000000E+00  0.00000000E+00
  0.00000000E+00  0.00000000E+00  0.00000000E+00
  0.00000000E+00  0.00000000E+00  0.00000000E+00
  0.00000000E+00  0.00000000E+00  0.00000000E+00
  0.00000000E+00  0.00000000E+00  0.00000000E+00
  0.00000000E+00  0.00000000E+00  0.00000000E+00
  0.00000000E+00  0.00000000E+00  0.00000000E+00
  0.00000000E+00  0.00000000E+00  0.00000000E+00
  0.00000000E+00  0.00000000E+00  0.00000000E+00
  0.00000000E+00  0.00000000E+00  0.00000000E+00
  0.00000000E+00  0.00000000E+00  0.00000000E+00
  0.00000000E+00  0.00000000E+00  0.00000000E+00
  0.00000000E+00  0.00000000E+00  0.00000000E+00
  0.00000000E+00  0.00000000E+00  0.00000000E+00
  0.00000000E+00  0.00000000E+00  0.00000000E+00
  0.00000000E+00  0.00000000E+00  0.00000000E+00
  0.00000000E+00  0.00000000E+00  0.00000000E+00
  0.00000000E+00  0.00000000E+00  0.00000000E+00
  0.00000000E+00  0.00000000E+00  0.00000000E+00
  0.00000000E+00  0.00000000E+00  0.00000000E+00
  0.00000000E+00  0.00000000E+00  0.00000000E+00
  0.00000000E+00  0.00000000E+00  0.00000000E+00
  0.00000000E+00  0.00000000E+00  0.00000000E+00
  0.00000000E+00  0.00000000E+00  0.00000000E+00
  0.00000000E+00  0.00000000E+00  0.00000000E+00
  0.00000000E+00  0.00000000E+00  0.00000000E+00
  0.00000000E+00  0.00000000E+00  0.00000000E+00
  0.00000000E+00  0.00000000E+00  0.00000000E+00
  0.00000000E+00  0.00000000E+00  0.00000000E+00
  0.00000000E+00  0.00000000E+00  0.00000000E+00
  0.00000000E+00  0.00000000E+00  0.00000000E+00
  0.00000000E+00  0.00000000E+00  0.00000000E+00
  0.00000000E+00  0.00000000E+00  0.00000000E+00
  0.00000000E+00  0.00000000E+00  0.00000000E+00
  0.00000000E+00  0.00000000E+00  0.00000000E+00
  0.00000000E+00  0.00000000E+00  0.00000000E+00
  0.00000000E+00  0.00000000E+00  0.00000000E+00
  0.00000000E+00  0.00000000E+00  0.00000000E+00
  0.00000000E+00  0.00000000E+00  0.00000000E+00
  0.00000000E+00  0.00000000E+00  0.00000000E+00
  0.00000000E+00  0.00000000E+00  0.00000000E+00
  0.00000000E+00  0.00000000E+00  0.00000000E+00
  0.00000000E+00  0.00000000E+00  0.00000000E+00
  0.00000000E+00  0.00000000E+00  0.00000000E+00
  0.00000000E+00  0.00000000E+00  0.00000000E+00
  0.00000000E+00  0.00000000E+00  0.00000000E+00
  0.00000000E+00  0.00000000E+00  0.00000000E+00
  0.00000000E+00  0.00000000E+00  0.00000000E+00
  0.00000000E+00  0.00000000E+00  0.00000000E+00
  0.00000000E+00  0.00000000E+00  0.00000000E+00
  0.00000000E+00  0.00000000E+00  0.00000000E+00
  0.00000000E+00  0.00000000E+00  0.00000000E+00
  0.00000000E+00  0.00000000E+00  0.00000000E+00
  0.00000000E+00  0.00000000E+00  0.00000000E+00
  0.00000000E+00  0.00000000E+00  0.00000000E+00
  0.00000000E+00  0.00000000E+00  0.00000000E+00
  0.00000000E+00  0.00000000E+00  0.00000000E+00
  0.00000000E+00  0.00000000E+00  0.00000000E+00
  0.00000000E+00  0.00000000E+00  0.00000000E+00
  0.00000000E+00  0.00000000E+00  0.00000000E+00
  0.00000000E+00  0.00000000E+00  0.00000000E+00
  0.00000000E+00  0.00000000E+00  0.00000000E+00
  0.00000000E+00  0.00000000E+00  0.00000000E+00
  0.00000000E+00  0.00000000E+00  0.00000000E+00
  0.00000000E+00  0.00000000E+00  0.00000000E+00
  0.00000000E+00  0.00000000E+00  0.00000000E+00
  0.00000000E+00  0.00000000E+00  0.00000000E+00
  0.00000000E+00  0.00000000E+00  0.00000000E+00
  0.00000000E+00  0.00000000E+00  0.00000000E+00
  0.00000000E+00  0.00000000E+00  0.00000000E+00
  0.00000000E+00  0.00000000E+00  0.00000000E+00
  0.00000000E+00  0.00000000E+00  0.00000000E+00
  0.00000000E+00  0.00000000E+00  0.00000000E+00
  0.00000000E+00  0.00000000E+00  0.00000000E+00
  0.00000000E+00  0.00000000E+00  0.00000000E+00
  0.00000000E+00  0.00000000E+00  0.00000000E+00
  0.00000000E+00  0.00000000E+00  0.00000000E+00
  0.00000000E+00  0.00000000E+00  0.00000000E+00
  0.00000000E+00  0.00000000E+00  0.00000000E+00
  0.00000000E+00  0.00000000E+00  0.00000000E+00
  0.00000000E+00  0.00000000E+00  0.00000000E+00
  0.00000000E+00  0.00000000E+00  0.00000000E+00
