Generated by VASPKIT code               
   1.00000000000000     
    11.5982000000000003    0.0000000000000000    0.0000000000000000
    -5.7990999999999975   10.0443358381726764    0.0000000000000000
     0.0000000000000000    0.0000000000000000   21.0482000000000014
  Ir              Ce              O             
     6    21    72
Selective dynamics
Direct
  0.9931337398426232  0.0068662601573769  0.4433078649678648   T   T   T
  0.6248408174160621  0.0367762041319384  0.4961825913684025   T   T   T
  0.9632237958680612  0.3751591825839384  0.4961825913684025   T   T   T
  0.3289916945520347  0.3325850265816352  0.4488434768712942   T   T   T
  0.3138579738749524  0.6861420261250482  0.4604109609075734   T   T   T
  0.6674149734183576  0.6710083054479654  0.4488434768712942   T   T   T
  0.2229459708129319  0.1146190388517183  0.3079998070624647   T   T   T
  0.1111099999999965  0.2222200000000001  0.1599900000000005   F   F   F
  0.3195249495251050  0.0047919862534513  0.4593018612537355   T   T   T
  0.5579554824636344  0.1122231623850677  0.3108336153565605   T   T   T
  0.4444400000000002  0.2222200000000001  0.1599900000000005   F   F   F
  0.8856615610773386  0.1143384389226546  0.3104562002506331   T   T   T
  0.7777799999999999  0.2222200000000001  0.1599900000000005   F   F   F
  0.2156321228151153  0.4391560932782606  0.3118099604469746   T   T   T
  0.1111099999999965  0.5555599999999998  0.1599900000000005   F   F   F
  0.5554703606543048  0.4445296393456956  0.3079515029806117   T   T   T
  0.4444400000000002  0.5555599999999998  0.1599900000000005   F   F   F
  0.6476254004172555  0.3523745995827442  0.4689409152044385   T   T   T
  0.8877768376149253  0.4420445175363658  0.3108336153565605   T   T   T
  0.7777799999999999  0.5555599999999998  0.1599900000000005   F   F   F
  0.9952080137465489  0.6804750504748945  0.4593018612537355   T   T   T
  0.2189668034780272  0.7810331965219726  0.3106143834297204   T   T   T
  0.1111099999999965  0.8888900000000035  0.1599900000000005   F   F   F
  0.5608439067217394  0.7843678771848852  0.3118099604469746   T   T   T
  0.4444400000000002  0.8888900000000035  0.1599900000000005   F   F   F
  0.8853809611482740  0.7770540291870683  0.3079998070624647   T   T   T
  0.7777799999999999  0.8888900000000035  0.1599900000000005   F   F   F
  0.0000000000000000  0.0000000000000000  0.1225000000000023   F   F   F
  0.9836814243370388  0.0163185756629609  0.5270531669825418   T   T   T
  0.1136297166049225  0.2247212284325655  0.2746320368725399   T   T   T
  0.1745220432094041  0.1530351314730476  0.4253690111633786   T   T   T
  0.1111099999999965  0.2222200000000001  0.0475100000000026   F   F   F
  0.0439047145252199  0.2844399840886039  0.4807989814175065   T   T   T
  0.0027665100240876  0.9972334899759122  0.3433118361755529   T   T   T
  0.2222200000000001  0.1111099999999965  0.1974799999999988   F   F   F
  0.3333299999999966  0.0000000000000000  0.1225000000000023   F   F   F
  0.2947904643798308  0.9021106375173679  0.5580332320215807   T   T   T
  0.4453214201365849  0.2203408105641134  0.2724548575270003   T   T   T
  0.5517982134836745  0.1135039916097723  0.4394798051118212   T   T   T
  0.4444400000000002  0.2222200000000001  0.0475100000000026   F   F   F
  0.4150389882985551  0.2253479469514827  0.4416674250725493   T   T   T
  0.3304928948337671  0.0043867087891411  0.3530749323713406   T   T   T
  0.5555599999999998  0.1111099999999965  0.1974799999999988   F   F   F
  0.6666700000000034  0.0000000000000000  0.1225000000000023   F   F   F
  0.5920425931744538  0.0452674610182730  0.5755053863692803   T   T   T
  0.7744680144095838  0.2255319855904158  0.2739324105808931   T   T   T
  0.9041088683115289  0.0958911316884644  0.4235990470986052   T   T   T
  0.7777799999999999  0.2222200000000001  0.0475100000000026   F   F   F
  0.7767493732045648  0.2232506267954357  0.4882407299238039   T   T   T
  0.6643916919696103  0.0031909195567986  0.3434940895632033   T   T   T
  0.8888899999999964  0.1111099999999965  0.1974799999999988   F   F   F
  0.0000000000000000  0.3333299999999966  0.1225000000000023   F   F   F
  0.9547325389817269  0.4079574068255459  0.5755053863692803   T   T   T
  0.1177259914826240  0.5636387108907595  0.2770234755714003   T   T   T
  0.2615595802084019  0.4371111692744971  0.4228748407724236   T   T   T
  0.1111099999999965  0.5555599999999998  0.0475100000000026   F   F   F
  0.1183962628694625  0.5470885140220910  0.4704543216670222   T   T   T
  0.9968090804432015  0.3356083080303896  0.3434940895632033   T   T   T
  0.2222200000000001  0.4444400000000002  0.1974799999999988   F   F   F
  0.3333299999999966  0.3333299999999966  0.1225000000000023   F   F   F
  0.3109617257720955  0.3223657188697192  0.5315540691681490   T   T   T
  0.4380545825503176  0.5619454174496825  0.2776204781117497   T   T   T
  0.5230308258206243  0.4769691741793752  0.4403401940240627   T   T   T
  0.4444400000000002  0.5555599999999998  0.0475100000000026   F   F   F
  0.3718297239906996  0.6281702760092995  0.5223910883152817   T   T   T
  0.3411849902972092  0.3314130116254800  0.3456478033162872   T   T   T
  0.5555599999999998  0.4444400000000002  0.1974799999999988   F   F   F
  0.6666700000000034  0.3333299999999966  0.1225000000000023   F   F   F
  0.6363656316783219  0.3636343683216776  0.5575251714741469   T   T   T
  0.7796591894358866  0.5546785798634150  0.2724548575270003   T   T   T
  0.8864960083902208  0.4482017865163254  0.4394798051118212   T   T   T
  0.7777799999999999  0.5555599999999998  0.0475100000000026   F   F   F
  0.7746520530485177  0.5849610117014459  0.4416674250725493   T   T   T
  0.6635395582488169  0.3364604417511828  0.3504984814254354   T   T   T
  0.8888899999999964  0.4444400000000002  0.1974799999999988   F   F   F
  0.0000000000000000  0.6666700000000034  0.1225000000000023   F   F   F
  0.0978893624826319  0.7052095356201693  0.5580332320215807   T   T   T
  0.1123668454766587  0.8876331545233407  0.2733986273957579   T   T   T
  0.2181983643088972  0.7818016356911023  0.4283512561361340   T   T   T
  0.1111099999999965  0.8888900000000035  0.0475100000000026   F   F   F
  0.0949017738537075  0.9050982261462924  0.4520512062673571   T   T   T
  0.9956132912108596  0.6695071051662335  0.3530749323713406   T   T   T
  0.2222200000000001  0.7777799999999999  0.1974799999999988   F   F   F
  0.3333299999999966  0.6666700000000034  0.1225000000000023   F   F   F
  0.2337639193370445  0.7662360806629561  0.5627247018794203   T   T   T
  0.4363612891092403  0.8822740085173759  0.2770234755714003   T   T   T
  0.5628888307255031  0.7384404197915981  0.4228748407724236   T   T   T
  0.4444400000000002  0.8888900000000035  0.0475100000000026   F   F   F
  0.4529114859779089  0.8816037371305377  0.4704543216670222   T   T   T
  0.3261515964478032  0.6738484035521969  0.3681125505828967   T   T   T
  0.5555599999999998  0.7777799999999999  0.1974799999999988   F   F   F
  0.6666699999999963  0.6666700000000034  0.1225000000000023   F   F   F
  0.6776342811302735  0.6890382742279039  0.5315540691681490   T   T   T
  0.7752787715674346  0.8863702833950781  0.2746320368725399   T   T   T
  0.8469648685269456  0.8254779567905961  0.4253690111633786   T   T   T
  0.7777799999999999  0.8888900000000035  0.0475100000000026   F   F   F
  0.7155600159113962  0.9560952854747798  0.4807989814175065   T   T   T
  0.6685869883745128  0.6588150097027907  0.3456478033162872   T   T   T
  0.8888899999999964  0.7777799999999999  0.1974799999999988   F   F   F
 
  0.00000000E+00  0.00000000E+00  0.00000000E+00
  0.00000000E+00  0.00000000E+00  0.00000000E+00
  0.00000000E+00  0.00000000E+00  0.00000000E+00
  0.00000000E+00  0.00000000E+00  0.00000000E+00
  0.00000000E+00  0.00000000E+00  0.00000000E+00
  0.00000000E+00  0.00000000E+00  0.00000000E+00
  0.00000000E+00  0.00000000E+00  0.00000000E+00
  0.00000000E+00  0.00000000E+00  0.00000000E+00
  0.00000000E+00  0.00000000E+00  0.00000000E+00
  0.00000000E+00  0.00000000E+00  0.00000000E+00
  0.00000000E+00  0.00000000E+00  0.00000000E+00
  0.00000000E+00  0.00000000E+00  0.00000000E+00
  0.00000000E+00  0.00000000E+00  0.00000000E+00
  0.00000000E+00  0.00000000E+00  0.00000000E+00
  0.00000000E+00  0.00000000E+00  0.00000000E+00
  0.00000000E+00  0.00000000E+00  0.00000000E+00
  0.00000000E+00  0.00000000E+00  0.00000000E+00
  0.00000000E+00  0.00000000E+00  0.00000000E+00
  0.00000000E+00  0.00000000E+00  0.00000000E+00
  0.00000000E+00  0.00000000E+00  0.00000000E+00
  0.00000000E+00  0.00000000E+00  0.00000000E+00
  0.00000000E+00  0.00000000E+00  0.00000000E+00
  0.00000000E+00  0.00000000E+00  0.00000000E+00
  0.00000000E+00  0.00000000E+00  0.00000000E+00
  0.00000000E+00  0.00000000E+00  0.00000000E+00
  0.00000000E+00  0.00000000E+00  0.00000000E+00
  0.00000000E+00  0.00000000E+00  0.00000000E+00
  0.00000000E+00  0.00000000E+00  0.00000000E+00
  0.00000000E+00  0.00000000E+00  0.00000000E+00
  0.00000000E+00  0.00000000E+00  0.00000000E+00
  0.00000000E+00  0.00000000E+00  0.00000000E+00
  0.00000000E+00  0.00000000E+00  0.00000000E+00
  0.00000000E+00  0.00000000E+00  0.00000000E+00
  0.00000000E+00  0.00000000E+00  0.00000000E+00
  0.00000000E+00  0.00000000E+00  0.00000000E+00
  0.00000000E+00  0.00000000E+00  0.00000000E+00
  0.00000000E+00  0.00000000E+00  0.00000000E+00
  0.00000000E+00  0.00000000E+00  0.00000000E+00
  0.00000000E+00  0.00000000E+00  0.00000000E+00
  0.00000000E+00  0.00000000E+00  0.00000000E+00
  0.00000000E+00  0.00000000E+00  0.00000000E+00
  0.00000000E+00  0.00000000E+00  0.00000000E+00
  0.00000000E+00  0.00000000E+00  0.00000000E+00
  0.00000000E+00  0.00000000E+00  0.00000000E+00
  0.00000000E+00  0.00000000E+00  0.00000000E+00
  0.00000000E+00  0.00000000E+00  0.00000000E+00
  0.00000000E+00  0.00000000E+00  0.00000000E+00
  0.00000000E+00  0.00000000E+00  0.00000000E+00
  0.00000000E+00  0.00000000E+00  0.00000000E+00
  0.00000000E+00  0.00000000E+00  0.00000000E+00
  0.00000000E+00  0.00000000E+00  0.00000000E+00
  0.00000000E+00  0.00000000E+00  0.00000000E+00
  0.00000000E+00  0.00000000E+00  0.00000000E+00
  0.00000000E+00  0.00000000E+00  0.00000000E+00
  0.00000000E+00  0.00000000E+00  0.00000000E+00
  0.00000000E+00  0.00000000E+00  0.00000000E+00
  0.00000000E+00  0.00000000E+00  0.00000000E+00
  0.00000000E+00  0.00000000E+00  0.00000000E+00
  0.00000000E+00  0.00000000E+00  0.00000000E+00
  0.00000000E+00  0.00000000E+00  0.00000000E+00
  0.00000000E+00  0.00000000E+00  0.00000000E+00
  0.00000000E+00  0.00000000E+00  0.00000000E+00
  0.00000000E+00  0.00000000E+00  0.00000000E+00
  0.00000000E+00  0.00000000E+00  0.00000000E+00
  0.00000000E+00  0.00000000E+00  0.00000000E+00
  0.00000000E+00  0.00000000E+00  0.00000000E+00
  0.00000000E+00  0.00000000E+00  0.00000000E+00
  0.00000000E+00  0.00000000E+00  0.00000000E+00
  0.00000000E+00  0.00000000E+00  0.00000000E+00
  0.00000000E+00  0.00000000E+00  0.00000000E+00
  0.00000000E+00  0.00000000E+00  0.00000000E+00
  0.00000000E+00  0.00000000E+00  0.00000000E+00
  0.00000000E+00  0.00000000E+00  0.00000000E+00
  0.00000000E+00  0.00000000E+00  0.00000000E+00
  0.00000000E+00  0.00000000E+00  0.00000000E+00
  0.00000000E+00  0.00000000E+00  0.00000000E+00
  0.00000000E+00  0.00000000E+00  0.00000000E+00
  0.00000000E+00  0.00000000E+00  0.00000000E+00
  0.00000000E+00  0.00000000E+00  0.00000000E+00
  0.00000000E+00  0.00000000E+00  0.00000000E+00
  0.00000000E+00  0.00000000E+00  0.00000000E+00
  0.00000000E+00  0.00000000E+00  0.00000000E+00
  0.00000000E+00  0.00000000E+00  0.00000000E+00
  0.00000000E+00  0.00000000E+00  0.00000000E+00
  0.00000000E+00  0.00000000E+00  0.00000000E+00
  0.00000000E+00  0.00000000E+00  0.00000000E+00
  0.00000000E+00  0.00000000E+00  0.00000000E+00
  0.00000000E+00  0.00000000E+00  0.00000000E+00
  0.00000000E+00  0.00000000E+00  0.00000000E+00
  0.00000000E+00  0.00000000E+00  0.00000000E+00
  0.00000000E+00  0.00000000E+00  0.00000000E+00
  0.00000000E+00  0.00000000E+00  0.00000000E+00
  0.00000000E+00  0.00000000E+00  0.00000000E+00
  0.00000000E+00  0.00000000E+00  0.00000000E+00
  0.00000000E+00  0.00000000E+00  0.00000000E+00
  0.00000000E+00  0.00000000E+00  0.00000000E+00
  0.00000000E+00  0.00000000E+00  0.00000000E+00
  0.00000000E+00  0.00000000E+00  0.00000000E+00
  0.00000000E+00  0.00000000E+00  0.00000000E+00
