Generated by VASPKIT code               
   1.00000000000000     
    11.5982000000000003    0.0000000000000000    0.0000000000000000
    -5.7990999999999975   10.0443358381726764    0.0000000000000000
     0.0000000000000000    0.0000000000000000   21.0482000000000014
  Ir              Ce              O             
     6    21    72
Selective dynamics
Direct
  0.9959482223226903  0.0040517776773096  0.4621818047019204   T   T   T
  0.6712557961437638  0.9977167683233599  0.4617108823038868   T   T   T
  0.0022832316766403  0.3287442038562360  0.4617108823038868   T   T   T
  0.3300993393482009  0.3348956498583836  0.4584590634102651   T   T   T
  0.3368793016513350  0.6631206983486652  0.4620085423944001   T   T   T
  0.6651043501416093  0.6699006606517990  0.4584590634102651   T   T   T
  0.2227296594847178  0.1113555254207420  0.3150957498015494   T   T   T
  0.1111099999999965  0.2222200000000001  0.1599900000000005   F   F   F
  0.3331342955913296  0.9991672113288204  0.4741671589697370   T   T   T
  0.5550106812627816  0.1121172066006395  0.3162477805282004   T   T   T
  0.4444400000000002  0.2222200000000001  0.1599900000000005   F   F   F
  0.8902599495296362  0.1097400504703569  0.3168994172092111   T   T   T
  0.7777799999999999  0.2222200000000001  0.1599900000000005   F   F   F
  0.2238235786231231  0.4427396278012023  0.3172158383163651   T   T   T
  0.1111099999999965  0.5555599999999998  0.1599900000000005   F   F   F
  0.5557942653061079  0.4442057346938920  0.3151882161484502   T   T   T
  0.4444400000000002  0.5555599999999998  0.1599900000000005   F   F   F
  0.6665812407615138  0.3334187592384864  0.4753281631273980   T   T   T
  0.8878827933993534  0.4449893187372184  0.3162477805282004   T   T   T
  0.7777799999999999  0.5555599999999998  0.1599900000000005   F   F   F
  0.0008327886711800  0.6668657044086703  0.4741671589697370   T   T   T
  0.2215227438837865  0.7784772561162134  0.3164470358661742   T   T   T
  0.1111099999999965  0.8888900000000035  0.1599900000000005   F   F   F
  0.5572603721987978  0.7761764213768769  0.3172158383163651   T   T   T
  0.4444400000000002  0.8888900000000035  0.1599900000000005   F   F   F
  0.8886444745792510  0.7772703405152821  0.3150957498015494   T   T   T
  0.7777799999999999  0.8888900000000035  0.1599900000000005   F   F   F
  0.0000000000000000  0.0000000000000000  0.1225000000000023   F   F   F
  0.9925857491024397  0.0074142508975603  0.5439581821449391   T   T   T
  0.1112283332915625  0.2227067993694236  0.2789520076311786   T   T   T
  0.2086629174832399  0.1249074002070112  0.4355125729236042   T   T   T
  0.1111099999999965  0.2222200000000001  0.0475100000000026   F   F   F
  0.1029486895450457  0.2257212445983267  0.4808761179631245   T   T   T
  0.9984611757400158  0.0015388242599842  0.3593840661159662   T   T   T
  0.2222200000000001  0.1111099999999965  0.1974799999999988   F   F   F
  0.3333299999999966  0.0000000000000000  0.1225000000000023   F   F   F
  0.3389102809145533  0.9984164343114810  0.5654542355378295   T   T   T
  0.4426619949211351  0.2244311974207584  0.2780457883714605   T   T   T
  0.5707927561431720  0.0965764655018401  0.4349447950252682   T   T   T
  0.4444400000000002  0.2222200000000001  0.0475100000000026   F   F   F
  0.4311999020567586  0.2365344038746083  0.4739588343462888   T   T   T
  0.3319780047511544  0.0014047295676550  0.3532435494504304   T   T   T
  0.5555599999999998  0.1111099999999965  0.1974799999999988   F   F   F
  0.6666700000000034  0.0000000000000000  0.1225000000000023   F   F   F
  0.6637656757806941  0.9999785057771968  0.5460501021336353   T   T   T
  0.7799442431951240  0.2200557568048762  0.2800499066781632   T   T   T
  0.8953499233448969  0.1046500766550960  0.4373648637031863   T   T   T
  0.7777799999999999  0.2222200000000001  0.0475100000000026   F   F   F
  0.7906128670666717  0.2093871329333285  0.4832369098449151   T   T   T
  0.6738183082181446  0.9930825258810509  0.3598033339024713   T   T   T
  0.8888899999999964  0.1111099999999965  0.1974799999999988   F   F   F
  0.0000000000000000  0.3333299999999966  0.1225000000000023   F   F   F
  0.0000214942228032  0.3362343242193061  0.5460501021336353   T   T   T
  0.1134370433046302  0.5533850015759550  0.2801479358659653   T   T   T
  0.2278718631144959  0.4357270224181934  0.4374966361695570   T   T   T
  0.1111099999999965  0.5555599999999998  0.0475100000000026   F   F   F
  0.1253898118229276  0.5437036190382392  0.4830102267211990   T   T   T
  0.0069174741189491  0.3261816917818551  0.3598033339024713   T   T   T
  0.2222200000000001  0.4444400000000002  0.1974799999999988   F   F   F
  0.3333299999999966  0.3333299999999966  0.1225000000000023   F   F   F
  0.3267793959802280  0.3441899756606339  0.5451787663339682   T   T   T
  0.4443357264947559  0.5556642735052441  0.2790761401534722   T   T   T
  0.5411069707348869  0.4588930292651131  0.4361769606217165   T   T   T
  0.4444400000000002  0.5555599999999998  0.0475100000000026   F   F   F
  0.4373872054031698  0.5626127945968300  0.4802598229445462   T   T   T
  0.3322012704128580  0.3343099105128421  0.3588703288759389   T   T   T
  0.5555599999999998  0.4444400000000002  0.1974799999999988   F   F   F
  0.6666700000000034  0.3333299999999966  0.1225000000000023   F   F   F
  0.6688456296109226  0.3311543703890775  0.5662017986490721   T   T   T
  0.7755688025792414  0.5573380050788648  0.2780457883714605   T   T   T
  0.9034235344981528  0.4292072438568282  0.4349447950252682   T   T   T
  0.7777799999999999  0.5555599999999998  0.0475100000000026   F   F   F
  0.7634655961253919  0.5688000979432413  0.4739588343462888   T   T   T
  0.6649988124960344  0.3350011875039653  0.3537856577693554   T   T   T
  0.8888899999999964  0.4444400000000002  0.1974799999999988   F   F   F
  0.0000000000000000  0.6666700000000034  0.1225000000000023   F   F   F
  0.0015835656885190  0.6610897190854466  0.5654542355378295   T   T   T
  0.1092889405517389  0.8907110594482612  0.2782831570508668   T   T   T
  0.2362522270715741  0.7637477729284261  0.4347713892012500   T   T   T
  0.1111099999999965  0.8888900000000035  0.0475100000000026   F   F   F
  0.0961837177354601  0.9038162822645398  0.4753436223042800   T   T   T
  0.9985952704323450  0.6680219952488455  0.3532435494504304   T   T   T
  0.2222200000000001  0.7777799999999999  0.1974799999999988   F   F   F
  0.3333299999999966  0.6666700000000034  0.1225000000000023   F   F   F
  0.3330618152734518  0.6669381847265482  0.5469515137738449   T   T   T
  0.4466149984240448  0.8865629566953698  0.2801479358659653   T   T   T
  0.5642729775818065  0.7721281368855041  0.4374966361695570   T   T   T
  0.4444400000000002  0.8888900000000035  0.0475100000000026   F   F   F
  0.4562963809617608  0.8746101881770726  0.4830102267211990   T   T   T
  0.3403230448921654  0.6596769551078348  0.3607735399506209   T   T   T
  0.5555599999999998  0.7777799999999999  0.1974799999999988   F   F   F
  0.6666699999999963  0.6666700000000034  0.1225000000000023   F   F   F
  0.6558100243393586  0.6732206040197720  0.5451787663339682   T   T   T
  0.7772932006305765  0.8887716667084375  0.2789520076311786   T   T   T
  0.8750925997929817  0.7913370825167603  0.4355125729236041   T   T   T
  0.7777799999999999  0.8888900000000035  0.0475100000000026   F   F   F
  0.7742787554016732  0.8970513104549543  0.4808761179631245   T   T   T
  0.6656900894871507  0.6677987295871418  0.3588703288759389   T   T   T
  0.8888899999999964  0.7777799999999999  0.1974799999999988   F   F   F
 
  0.00000000E+00  0.00000000E+00  0.00000000E+00
  0.00000000E+00  0.00000000E+00  0.00000000E+00
  0.00000000E+00  0.00000000E+00  0.00000000E+00
  0.00000000E+00  0.00000000E+00  0.00000000E+00
  0.00000000E+00  0.00000000E+00  0.00000000E+00
  0.00000000E+00  0.00000000E+00  0.00000000E+00
  0.00000000E+00  0.00000000E+00  0.00000000E+00
  0.00000000E+00  0.00000000E+00  0.00000000E+00
  0.00000000E+00  0.00000000E+00  0.00000000E+00
  0.00000000E+00  0.00000000E+00  0.00000000E+00
  0.00000000E+00  0.00000000E+00  0.00000000E+00
  0.00000000E+00  0.00000000E+00  0.00000000E+00
  0.00000000E+00  0.00000000E+00  0.00000000E+00
  0.00000000E+00  0.00000000E+00  0.00000000E+00
  0.00000000E+00  0.00000000E+00  0.00000000E+00
  0.00000000E+00  0.00000000E+00  0.00000000E+00
  0.00000000E+00  0.00000000E+00  0.00000000E+00
  0.00000000E+00  0.00000000E+00  0.00000000E+00
  0.00000000E+00  0.00000000E+00  0.00000000E+00
  0.00000000E+00  0.00000000E+00  0.00000000E+00
  0.00000000E+00  0.00000000E+00  0.00000000E+00
  0.00000000E+00  0.00000000E+00  0.00000000E+00
  0.00000000E+00  0.00000000E+00  0.00000000E+00
  0.00000000E+00  0.00000000E+00  0.00000000E+00
  0.00000000E+00  0.00000000E+00  0.00000000E+00
  0.00000000E+00  0.00000000E+00  0.00000000E+00
  0.00000000E+00  0.00000000E+00  0.00000000E+00
  0.00000000E+00  0.00000000E+00  0.00000000E+00
  0.00000000E+00  0.00000000E+00  0.00000000E+00
  0.00000000E+00  0.00000000E+00  0.00000000E+00
  0.00000000E+00  0.00000000E+00  0.00000000E+00
  0.00000000E+00  0.00000000E+00  0.00000000E+00
  0.00000000E+00  0.00000000E+00  0.00000000E+00
  0.00000000E+00  0.00000000E+00  0.00000000E+00
  0.00000000E+00  0.00000000E+00  0.00000000E+00
  0.00000000E+00  0.00000000E+00  0.00000000E+00
  0.00000000E+00  0.00000000E+00  0.00000000E+00
  0.00000000E+00  0.00000000E+00  0.00000000E+00
  0.00000000E+00  0.00000000E+00  0.00000000E+00
  0.00000000E+00  0.00000000E+00  0.00000000E+00
  0.00000000E+00  0.00000000E+00  0.00000000E+00
  0.00000000E+00  0.00000000E+00  0.00000000E+00
  0.00000000E+00  0.00000000E+00  0.00000000E+00
  0.00000000E+00  0.00000000E+00  0.00000000E+00
  0.00000000E+00  0.00000000E+00  0.00000000E+00
  0.00000000E+00  0.00000000E+00  0.00000000E+00
  0.00000000E+00  0.00000000E+00  0.00000000E+00
  0.00000000E+00  0.00000000E+00  0.00000000E+00
  0.00000000E+00  0.00000000E+00  0.00000000E+00
  0.00000000E+00  0.00000000E+00  0.00000000E+00
  0.00000000E+00  0.00000000E+00  0.00000000E+00
  0.00000000E+00  0.00000000E+00  0.00000000E+00
  0.00000000E+00  0.00000000E+00  0.00000000E+00
  0.00000000E+00  0.00000000E+00  0.00000000E+00
  0.00000000E+00  0.00000000E+00  0.00000000E+00
  0.00000000E+00  0.00000000E+00  0.00000000E+00
  0.00000000E+00  0.00000000E+00  0.00000000E+00
  0.00000000E+00  0.00000000E+00  0.00000000E+00
  0.00000000E+00  0.00000000E+00  0.00000000E+00
  0.00000000E+00  0.00000000E+00  0.00000000E+00
  0.00000000E+00  0.00000000E+00  0.00000000E+00
  0.00000000E+00  0.00000000E+00  0.00000000E+00
  0.00000000E+00  0.00000000E+00  0.00000000E+00
  0.00000000E+00  0.00000000E+00  0.00000000E+00
  0.00000000E+00  0.00000000E+00  0.00000000E+00
  0.00000000E+00  0.00000000E+00  0.00000000E+00
  0.00000000E+00  0.00000000E+00  0.00000000E+00
  0.00000000E+00  0.00000000E+00  0.00000000E+00
  0.00000000E+00  0.00000000E+00  0.00000000E+00
  0.00000000E+00  0.00000000E+00  0.00000000E+00
  0.00000000E+00  0.00000000E+00  0.00000000E+00
  0.00000000E+00  0.00000000E+00  0.00000000E+00
  0.00000000E+00  0.00000000E+00  0.00000000E+00
  0.00000000E+00  0.00000000E+00  0.00000000E+00
  0.00000000E+00  0.00000000E+00  0.00000000E+00
  0.00000000E+00  0.00000000E+00  0.00000000E+00
  0.00000000E+00  0.00000000E+00  0.00000000E+00
  0.00000000E+00  0.00000000E+00  0.00000000E+00
  0.00000000E+00  0.00000000E+00  0.00000000E+00
  0.00000000E+00  0.00000000E+00  0.00000000E+00
  0.00000000E+00  0.00000000E+00  0.00000000E+00
  0.00000000E+00  0.00000000E+00  0.00000000E+00
  0.00000000E+00  0.00000000E+00  0.00000000E+00
  0.00000000E+00  0.00000000E+00  0.00000000E+00
  0.00000000E+00  0.00000000E+00  0.00000000E+00
  0.00000000E+00  0.00000000E+00  0.00000000E+00
  0.00000000E+00  0.00000000E+00  0.00000000E+00
  0.00000000E+00  0.00000000E+00  0.00000000E+00
  0.00000000E+00  0.00000000E+00  0.00000000E+00
  0.00000000E+00  0.00000000E+00  0.00000000E+00
  0.00000000E+00  0.00000000E+00  0.00000000E+00
  0.00000000E+00  0.00000000E+00  0.00000000E+00
  0.00000000E+00  0.00000000E+00  0.00000000E+00
  0.00000000E+00  0.00000000E+00  0.00000000E+00
  0.00000000E+00  0.00000000E+00  0.00000000E+00
  0.00000000E+00  0.00000000E+00  0.00000000E+00
  0.00000000E+00  0.00000000E+00  0.00000000E+00
  0.00000000E+00  0.00000000E+00  0.00000000E+00
  0.00000000E+00  0.00000000E+00  0.00000000E+00
