Generated by VASPKIT code               
   1.00000000000000     
    11.5982000000000003    0.0000000000000000    0.0000000000000000
    -5.7990999999999975   10.0443358381726764    0.0000000000000000
     0.0000000000000000    0.0000000000000000   21.0482000000000014
  Ir              Ce              O             
     6    21    72
Selective dynamics
Direct
  0.0107568452909280  0.9892431547090721  0.4444587584421282   T   T   T
  0.6404884103226391  0.0201356037349573  0.4659042262712969   T   T   T
  0.9798643962650432  0.3595115896773608  0.4659042262712969   T   T   T
  0.3446530282009519  0.3258390584534310  0.4443899485384579   T   T   T
  0.3147537534381874  0.6852462465618133  0.4582012607316070   T   T   T
  0.6741609415465624  0.6553469717990485  0.4443899485384579   T   T   T
  0.2267781506468917  0.1069641424383131  0.3065162032507085   T   T   T
  0.1111099999999965  0.2222200000000001  0.1599900000000005   F   F   F
  0.3317731670965537  0.0037570008090237  0.4616089476544679   T   T   T
  0.5588828462136788  0.1104503415242209  0.3106318828477438   T   T   T
  0.4444400000000002  0.2222200000000001  0.1599900000000005   F   F   F
  0.8903814396749093  0.1096185603250840  0.3134566073254231   T   T   T
  0.7777799999999999  0.2222200000000001  0.1599900000000005   F   F   F
  0.2225240554694957  0.4410906641852863  0.3118297086030644   T   T   T
  0.1111099999999965  0.5555599999999998  0.1599900000000005   F   F   F
  0.5590997526365753  0.4409002473634245  0.3071141977722000   T   T   T
  0.4444400000000002  0.5555599999999998  0.1599900000000005   F   F   F
  0.6709544859663786  0.3290455140336216  0.4638301732893459   T   T   T
  0.8895496584757719  0.4411171537863207  0.3106318828477438   T   T   T
  0.7777799999999999  0.5555599999999998  0.1599900000000005   F   F   F
  0.9962429991909768  0.6682268329034464  0.4616089476544679   T   T   T
  0.2237539691155727  0.7762460308844271  0.3116438752330223   T   T   T
  0.1111099999999965  0.8888900000000035  0.1599900000000005   F   F   F
  0.5589093358147137  0.7774759445305042  0.3118297086030644   T   T   T
  0.4444400000000002  0.8888900000000035  0.1599900000000005   F   F   F
  0.8930358575616800  0.7732218493531082  0.3065162032507085   T   T   T
  0.7777799999999999  0.8888900000000035  0.1599900000000005   F   F   F
  0.0000000000000000  0.0000000000000000  0.1225000000000023   F   F   F
  0.0042472814928648  0.9957527185071351  0.5274661237588401   T   T   T
  0.1088908565883055  0.2235914507988991  0.2747419972493407   T   T   T
  0.1997650490759926  0.1361640135955304  0.4301896552308191   T   T   T
  0.1111099999999965  0.2222200000000001  0.0475100000000026   F   F   F
  0.0635743031944012  0.2729826957319116  0.4839326891284064   T   T   T
  0.0096533563559760  0.9903466436440240  0.3423054503982522   T   T   T
  0.2222200000000001  0.1111099999999965  0.1974799999999988   F   F   F
  0.3333299999999966  0.0000000000000000  0.1225000000000023   F   F   F
  0.3246766776226703  0.9974083292010070  0.5512254448191050   T   T   T
  0.4477532481575526  0.2175555933823105  0.2702695098678867   T   T   T
  0.5559834245641051  0.1089058260835528  0.4209244171210363   T   T   T
  0.4444400000000002  0.2222200000000001  0.0475100000000026   F   F   F
  0.4456736417489750  0.2421364920635461  0.4344975792224935   T   T   T
  0.3348097153159816  0.0000001898487094  0.3453925988310588   T   T   T
  0.5555599999999998  0.1111099999999965  0.1974799999999988   F   F   F
  0.6666700000000034  0.0000000000000000  0.1225000000000023   F   F   F
  0.5906950089670484  0.0530694796600524  0.5391613254104510   T   T   T
  0.7824404873107962  0.2175595126892040  0.2753575848729171   T   T   T
  0.9231021678130781  0.0768978321869150  0.4233158803924455   T   T   T
  0.7777799999999999  0.2222200000000001  0.0475100000000026   F   F   F
  0.7966555574001122  0.2033444425998880  0.4596231246163296   T   T   T
  0.6751882921545702  0.0020236428093503  0.3620742122510304   T   T   T
  0.8888899999999964  0.1111099999999965  0.1974799999999988   F   F   F
  0.0000000000000000  0.3333299999999966  0.1225000000000023   F   F   F
  0.9469305203399475  0.4093049910329520  0.5391613254104510   T   T   T
  0.1142731828190232  0.5501218697900926  0.2759488499330627   T   T   T
  0.2526211405858795  0.4072355128311895  0.4217301780381376   T   T   T
  0.1111099999999965  0.5555599999999998  0.0475100000000026   F   F   F
  0.1325889532705280  0.5347260966638061  0.4462400702354954   T   T   T
  0.9979763571906497  0.3248117078454295  0.3620742122510304   T   T   T
  0.2222200000000001  0.4444400000000002  0.1974799999999988   F   F   F
  0.3333299999999966  0.3333299999999966  0.1225000000000023   F   F   F
  0.3361541708701491  0.3293085549163137  0.5278918238534961   T   T   T
  0.4422143633869447  0.5577856366130556  0.2753482139472239   T   T   T
  0.5151342513930341  0.4848657486069660  0.4213193867999341   T   T   T
  0.4444400000000002  0.5555599999999998  0.0475100000000026   F   F   F
  0.3998960267984727  0.6001039732015275  0.4954257525769746   T   T   T
  0.3396812816567215  0.3227274792457796  0.3405587615459230   T   T   T
  0.5555599999999998  0.4444400000000002  0.1974799999999988   F   F   F
  0.6666700000000034  0.3333299999999966  0.1225000000000023   F   F   F
  0.6609422637964012  0.3390577362035990  0.5526745541535802   T   T   T
  0.7824444066176890  0.5522467518424475  0.2702695098678867   T   T   T
  0.8910941739164399  0.4440165754358951  0.4209244171210363   T   T   T
  0.7777799999999999  0.5555599999999998  0.0475100000000026   F   F   F
  0.7578635079364542  0.5543263582510251  0.4344975792224935   T   T   T
  0.6682281669632241  0.3317718330367759  0.3437923331648319   T   T   T
  0.8888899999999964  0.4444400000000002  0.1974799999999988   F   F   F
  0.0000000000000000  0.6666700000000034  0.1225000000000023   F   F   F
  0.0025916707989932  0.6753233223773296  0.5512254448191050   T   T   T
  0.1152761616940256  0.8847238383059743  0.2707629544580150   T   T   T
  0.2241368625001516  0.7758631374998488  0.4243747993456600   T   T   T
  0.1111099999999965  0.8888900000000035  0.0475100000000026   F   F   F
  0.1032380652537372  0.8967619347462628  0.4332321321023971   T   T   T
  0.9999998101512901  0.6651902846840182  0.3453925988310588   T   T   T
  0.2222200000000001  0.7777799999999999  0.1974799999999988   F   F   F
  0.3333299999999966  0.6666700000000034  0.1225000000000023   F   F   F
  0.2917989857104131  0.7082010142895871  0.5420745735695454   T   T   T
  0.4498781302099070  0.8857268171809769  0.2759488499330627   T   T   T
  0.5927644871688098  0.7473788594141203  0.4217301780381376   T   T   T
  0.4444400000000002  0.8888900000000035  0.0475100000000026   F   F   F
  0.4652739033361938  0.8674110467294724  0.4462400702354954   T   T   T
  0.3366969084018043  0.6633030915981959  0.3596671773077276   T   T   T
  0.5555599999999998  0.7777799999999999  0.1974799999999988   F   F   F
  0.6666699999999963  0.6666700000000034  0.1225000000000023   F   F   F
  0.6706914450836789  0.6638458291298508  0.5278918238534961   T   T   T
  0.7764085492011007  0.8911091434116944  0.2747419972493407   T   T   T
  0.8638359864044622  0.8002349509240075  0.4301896552308191   T   T   T
  0.7777799999999999  0.8888900000000035  0.0475100000000026   F   F   F
  0.7270173042680881  0.9364256968055985  0.4839326891284064   T   T   T
  0.6772725207542134  0.6603187183432782  0.3405587615459230   T   T   T
  0.8888899999999964  0.7777799999999999  0.1974799999999988   F   F   F
 
  0.00000000E+00  0.00000000E+00  0.00000000E+00
  0.00000000E+00  0.00000000E+00  0.00000000E+00
  0.00000000E+00  0.00000000E+00  0.00000000E+00
  0.00000000E+00  0.00000000E+00  0.00000000E+00
  0.00000000E+00  0.00000000E+00  0.00000000E+00
  0.00000000E+00  0.00000000E+00  0.00000000E+00
  0.00000000E+00  0.00000000E+00  0.00000000E+00
  0.00000000E+00  0.00000000E+00  0.00000000E+00
  0.00000000E+00  0.00000000E+00  0.00000000E+00
  0.00000000E+00  0.00000000E+00  0.00000000E+00
  0.00000000E+00  0.00000000E+00  0.00000000E+00
  0.00000000E+00  0.00000000E+00  0.00000000E+00
  0.00000000E+00  0.00000000E+00  0.00000000E+00
  0.00000000E+00  0.00000000E+00  0.00000000E+00
  0.00000000E+00  0.00000000E+00  0.00000000E+00
  0.00000000E+00  0.00000000E+00  0.00000000E+00
  0.00000000E+00  0.00000000E+00  0.00000000E+00
  0.00000000E+00  0.00000000E+00  0.00000000E+00
  0.00000000E+00  0.00000000E+00  0.00000000E+00
  0.00000000E+00  0.00000000E+00  0.00000000E+00
  0.00000000E+00  0.00000000E+00  0.00000000E+00
  0.00000000E+00  0.00000000E+00  0.00000000E+00
  0.00000000E+00  0.00000000E+00  0.00000000E+00
  0.00000000E+00  0.00000000E+00  0.00000000E+00
  0.00000000E+00  0.00000000E+00  0.00000000E+00
  0.00000000E+00  0.00000000E+00  0.00000000E+00
  0.00000000E+00  0.00000000E+00  0.00000000E+00
  0.00000000E+00  0.00000000E+00  0.00000000E+00
  0.00000000E+00  0.00000000E+00  0.00000000E+00
  0.00000000E+00  0.00000000E+00  0.00000000E+00
  0.00000000E+00  0.00000000E+00  0.00000000E+00
  0.00000000E+00  0.00000000E+00  0.00000000E+00
  0.00000000E+00  0.00000000E+00  0.00000000E+00
  0.00000000E+00  0.00000000E+00  0.00000000E+00
  0.00000000E+00  0.00000000E+00  0.00000000E+00
  0.00000000E+00  0.00000000E+00  0.00000000E+00
  0.00000000E+00  0.00000000E+00  0.00000000E+00
  0.00000000E+00  0.00000000E+00  0.00000000E+00
  0.00000000E+00  0.00000000E+00  0.00000000E+00
  0.00000000E+00  0.00000000E+00  0.00000000E+00
  0.00000000E+00  0.00000000E+00  0.00000000E+00
  0.00000000E+00  0.00000000E+00  0.00000000E+00
  0.00000000E+00  0.00000000E+00  0.00000000E+00
  0.00000000E+00  0.00000000E+00  0.00000000E+00
  0.00000000E+00  0.00000000E+00  0.00000000E+00
  0.00000000E+00  0.00000000E+00  0.00000000E+00
  0.00000000E+00  0.00000000E+00  0.00000000E+00
  0.00000000E+00  0.00000000E+00  0.00000000E+00
  0.00000000E+00  0.00000000E+00  0.00000000E+00
  0.00000000E+00  0.00000000E+00  0.00000000E+00
  0.00000000E+00  0.00000000E+00  0.00000000E+00
  0.00000000E+00  0.00000000E+00  0.00000000E+00
  0.00000000E+00  0.00000000E+00  0.00000000E+00
  0.00000000E+00  0.00000000E+00  0.00000000E+00
  0.00000000E+00  0.00000000E+00  0.00000000E+00
  0.00000000E+00  0.00000000E+00  0.00000000E+00
  0.00000000E+00  0.00000000E+00  0.00000000E+00
  0.00000000E+00  0.00000000E+00  0.00000000E+00
  0.00000000E+00  0.00000000E+00  0.00000000E+00
  0.00000000E+00  0.00000000E+00  0.00000000E+00
  0.00000000E+00  0.00000000E+00  0.00000000E+00
  0.00000000E+00  0.00000000E+00  0.00000000E+00
  0.00000000E+00  0.00000000E+00  0.00000000E+00
  0.00000000E+00  0.00000000E+00  0.00000000E+00
  0.00000000E+00  0.00000000E+00  0.00000000E+00
  0.00000000E+00  0.00000000E+00  0.00000000E+00
  0.00000000E+00  0.00000000E+00  0.00000000E+00
  0.00000000E+00  0.00000000E+00  0.00000000E+00
  0.00000000E+00  0.00000000E+00  0.00000000E+00
  0.00000000E+00  0.00000000E+00  0.00000000E+00
  0.00000000E+00  0.00000000E+00  0.00000000E+00
  0.00000000E+00  0.00000000E+00  0.00000000E+00
  0.00000000E+00  0.00000000E+00  0.00000000E+00
  0.00000000E+00  0.00000000E+00  0.00000000E+00
  0.00000000E+00  0.00000000E+00  0.00000000E+00
  0.00000000E+00  0.00000000E+00  0.00000000E+00
  0.00000000E+00  0.00000000E+00  0.00000000E+00
  0.00000000E+00  0.00000000E+00  0.00000000E+00
  0.00000000E+00  0.00000000E+00  0.00000000E+00
  0.00000000E+00  0.00000000E+00  0.00000000E+00
  0.00000000E+00  0.00000000E+00  0.00000000E+00
  0.00000000E+00  0.00000000E+00  0.00000000E+00
  0.00000000E+00  0.00000000E+00  0.00000000E+00
  0.00000000E+00  0.00000000E+00  0.00000000E+00
  0.00000000E+00  0.00000000E+00  0.00000000E+00
  0.00000000E+00  0.00000000E+00  0.00000000E+00
  0.00000000E+00  0.00000000E+00  0.00000000E+00
  0.00000000E+00  0.00000000E+00  0.00000000E+00
  0.00000000E+00  0.00000000E+00  0.00000000E+00
  0.00000000E+00  0.00000000E+00  0.00000000E+00
  0.00000000E+00  0.00000000E+00  0.00000000E+00
  0.00000000E+00  0.00000000E+00  0.00000000E+00
  0.00000000E+00  0.00000000E+00  0.00000000E+00
  0.00000000E+00  0.00000000E+00  0.00000000E+00
  0.00000000E+00  0.00000000E+00  0.00000000E+00
  0.00000000E+00  0.00000000E+00  0.00000000E+00
  0.00000000E+00  0.00000000E+00  0.00000000E+00
  0.00000000E+00  0.00000000E+00  0.00000000E+00
  0.00000000E+00  0.00000000E+00  0.00000000E+00
