cif2pos.py
1.0
     5.46745035     0.00000000     0.00000000
     0.00000000     5.46745035     0.00000000
     0.00000000     0.00000000     5.46745035
  Ce  O
  4  8
Direct
     0.00000000     0.00000000     0.00000000
     0.50000000     0.50000000     0.00000000
     0.50000000     0.00000000     0.50000000
     0.00000000     0.50000000     0.50000000
     0.25000000     0.25000000     0.25000000
     0.75000000     0.75000000     0.75000000
     0.75000000     0.25000000     0.25000000
     0.25000000     0.75000000     0.75000000
     0.75000000     0.75000000     0.25000000
     0.25000000     0.25000000     0.75000000
     0.25000000     0.75000000     0.25000000
     0.75000000     0.25000000     0.75000000
