Generated by VASPKIT code               
   1.00000000000000     
    11.5982000000000003    0.0000000000000000    0.0000000000000000
    -5.7990999999999975   10.0443358381726764    0.0000000000000000
     0.0000000000000000    0.0000000000000000   21.0482000000000014
  Ce              O             
    27    72
Selective dynamics
Direct
  0.0000006136070182  0.9999993863929815  0.4644128574251848   T   T   T
  0.2222223175670444  0.1111120169185428  0.3120095413167678   T   T   T
  0.1111099999999965  0.2222200000000001  0.1599900000000005   F   F   F
  0.3333310007742004  0.9999967888367527  0.4644121622316751   T   T   T
  0.5555579402130958  0.1111134046793472  0.3120064467236100   T   T   T
  0.4444400000000002  0.2222200000000001  0.1599900000000005   F   F   F
  0.6666665745906157  0.9999990024597627  0.4644124134966401   T   T   T
  0.8888879433025314  0.1111120566974615  0.3120086680973904   T   T   T
  0.7777799999999999  0.2222200000000001  0.1599900000000005   F   F   F
  0.0000009975402372  0.3333334254093843  0.4644124134966401   T   T   T
  0.2222209740693614  0.4444419866405463  0.3120073680554531   T   T   T
  0.1111099999999965  0.5555599999999998  0.1599900000000005   F   F   F
  0.3333314472847856  0.3333308859320284  0.4644116821260282   T   T   T
  0.5555566730074565  0.4444433269925434  0.3120043247732412   T   T   T
  0.4444400000000002  0.5555599999999998  0.1599900000000005   F   F   F
  0.6666670002164933  0.3333329997835066  0.4644119542093876   T   T   T
  0.8888865953206457  0.4444420597869042  0.3120064467236100   T   T   T
  0.7777799999999999  0.5555599999999998  0.1599900000000005   F   F   F
  0.0000032111632474  0.6666689992257995  0.4644121622316751   T   T   T
  0.2222224362386564  0.7777775637613435  0.3120104285154627   T   T   T
  0.1111099999999965  0.8888900000000035  0.1599900000000005   F   F   F
  0.3333336575906354  0.6666663424093643  0.4644114686033592   T   T   T
  0.5555580133594541  0.7777790259306385  0.3120073680554531   T   T   T
  0.4444400000000002  0.8888900000000035  0.1599900000000005   F   F   F
  0.6666691140679645  0.6666685527152142  0.4644116821260282   T   T   T
  0.8888879830814500  0.7777776824329556  0.3120095413167678   T   T   T
  0.7777799999999999  0.8888900000000035  0.1599900000000005   F   F   F
  0.0000000000000000  0.0000000000000000  0.1225000000000023   F   F   F
  0.0000010826883122  0.9999989173116879  0.5767731989038297   T   T   T
  0.1111093143939496  0.2222195237452238  0.2742107263536394   T   T   T
  0.2222232882697761  0.1111124931776164  0.4260035552783867   T   T   T
  0.1111099999999965  0.2222200000000001  0.0475100000000026   F   F   F
  0.1111121083898615  0.2222237753765341  0.5036532660343472   T   T   T
  0.0000001706932491  0.9999998293067511  0.3501170705960292   T   T   T
  0.2222200000000001  0.1111099999999965  0.1974799999999988   F   F   F
  0.3333299999999966  0.0000000000000000  0.1225000000000023   F   F   F
  0.3333251556489761  0.9999996445220982  0.5767725836649841   T   T   T
  0.4444415463066252  0.2222178515978344  0.2742095953042285   T   T   T
  0.5555579206797163  0.1111138645471007  0.4260034877867576   T   T   T
  0.4444400000000002  0.2222200000000001  0.0475100000000026   F   F   F
  0.4444439181648894  0.2222227860113495  0.5036514932397114   T   T   T
  0.3333326510274393  0.9999982346797858  0.3501161704040386   T   T   T
  0.5555599999999998  0.1111099999999965  0.1974799999999988   F   F   F
  0.6666700000000034  0.0000000000000000  0.1225000000000023   F   F   F
  0.6666770585556704  0.0000016717380961  0.5767723604546534   T   T   T
  0.7777791096531003  0.2222208903468998  0.2742109059878782   T   T   T
  0.8888870569139149  0.1111129430860781  0.4260044550605156   T   T   T
  0.7777799999999999  0.2222200000000001  0.0475100000000026   F   F   F
  0.7777760486156784  0.2222239513843216  0.5036531340445339   T   T   T
  0.6666652843260324  0.9999981987831261  0.3501158990638691   T   T   T
  0.8888899999999964  0.1111099999999965  0.1974799999999988   F   F   F
  0.0000000000000000  0.3333299999999966  0.1225000000000023   F   F   F
  0.9999983282619038  0.3333229414443292  0.5767723604546534   T   T   T
  0.1111123573493518  0.5555570758392084  0.2742093857940230   T   T   T
  0.2222222671857487  0.4444415978658577  0.4260025774368406   T   T   T
  0.1111099999999965  0.5555599999999998  0.0475100000000026   F   F   F
  0.1111132553441595  0.5555559017521517  0.5036516421970961   T   T   T
  0.0000018012168740  0.3333347156739676  0.3501158990638691   T   T   T
  0.2222200000000001  0.4444400000000002  0.1974799999999988   F   F   F
  0.3333299999999966  0.3333299999999966  0.1225000000000023   F   F   F
  0.3333223335052732  0.3333231459707338  0.5767718171200428   T   T   T
  0.4444445929322351  0.5555554070677647  0.2742082600532234   T   T   T
  0.5555570243563758  0.4444429756436244  0.4260025132531650   T   T   T
  0.4444400000000002  0.5555599999999998  0.0475100000000026   F   F   F
  0.4444451071229307  0.5555548928770692  0.5036497233866377   T   T   T
  0.3333343066734009  0.3333331579022768  0.3501150267914406   T   T   T
  0.5555599999999998  0.4444400000000002  0.1974799999999988   F   F   F
  0.6666700000000034  0.3333299999999966  0.1225000000000023   F   F   F
  0.6666745143607626  0.3333254856392374  0.5767716000933163   T   T   T
  0.7777821484021655  0.5555584536933746  0.2742095953042285   T   T   T
  0.8888861354528921  0.4444420793202835  0.4260034877867576   T   T   T
  0.7777799999999999  0.5555599999999998  0.0475100000000026   F   F   F
  0.7777772139886504  0.5555560818351106  0.5036514932397114   T   T   T
  0.6666669394294555  0.3333330605705443  0.3501147598243694   T   T   T
  0.8888899999999964  0.4444400000000002  0.1974799999999988   F   F   F
  0.0000000000000000  0.6666700000000034  0.1225000000000023   F   F   F
  0.0000003554779018  0.6666748443510239  0.5767725836649841   T   T   T
  0.1111106797368388  0.8888893202631614  0.2742105253567941   T   T   T
  0.2222237136860176  0.7777762863139823  0.4260026627917671   T   T   T
  0.1111099999999965  0.8888900000000035  0.0475100000000026   F   F   F
  0.1111122609884893  0.8888877390115109  0.5036533948915660   T   T   T
  0.0000017653202144  0.6666673489725609  0.3501161704040386   T   T   T
  0.2222200000000001  0.7777799999999999  0.1974799999999988   F   F   F
  0.3333299999999966  0.6666700000000034  0.1225000000000023   F   F   F
  0.3333241772790849  0.6666758227209150  0.5767720462874553   T   T   T
  0.4444429241607917  0.8888876426506481  0.2742093857940230   T   T   T
  0.5555584021341423  0.7777777328142513  0.4260025774368406   T   T   T
  0.4444400000000002  0.8888900000000035  0.0475100000000026   F   F   F
  0.4444440982478483  0.8888867446558404  0.5036516421970961   T   T   T
  0.3333342560636436  0.6666657439363564  0.3501152669596087   T   T   T
  0.5555599999999998  0.7777799999999999  0.1974799999999988   F   F   F
  0.6666699999999963  0.6666700000000034  0.1225000000000023   F   F   F
  0.6666768540292591  0.6666776664947270  0.5767718171200428   T   T   T
  0.7777804762547761  0.8888906856060504  0.2742107263536394   T   T   T
  0.8888875068223767  0.7777767117302239  0.4260035552783867   T   T   T
  0.7777799999999999  0.8888900000000035  0.0475100000000026   F   F   F
  0.7777762246234660  0.8888878916101385  0.5036532660343472   T   T   T
  0.6666668420977160  0.6666656933265992  0.3501150267914406   T   T   T
  0.8888899999999964  0.7777799999999999  0.1974799999999988   F   F   F
 
  0.00000000E+00  0.00000000E+00  0.00000000E+00
  0.00000000E+00  0.00000000E+00  0.00000000E+00
  0.00000000E+00  0.00000000E+00  0.00000000E+00
  0.00000000E+00  0.00000000E+00  0.00000000E+00
  0.00000000E+00  0.00000000E+00  0.00000000E+00
  0.00000000E+00  0.00000000E+00  0.00000000E+00
  0.00000000E+00  0.00000000E+00  0.00000000E+00
  0.00000000E+00  0.00000000E+00  0.00000000E+00
  0.00000000E+00  0.00000000E+00  0.00000000E+00
  0.00000000E+00  0.00000000E+00  0.00000000E+00
  0.00000000E+00  0.00000000E+00  0.00000000E+00
  0.00000000E+00  0.00000000E+00  0.00000000E+00
  0.00000000E+00  0.00000000E+00  0.00000000E+00
  0.00000000E+00  0.00000000E+00  0.00000000E+00
  0.00000000E+00  0.00000000E+00  0.00000000E+00
  0.00000000E+00  0.00000000E+00  0.00000000E+00
  0.00000000E+00  0.00000000E+00  0.00000000E+00
  0.00000000E+00  0.00000000E+00  0.00000000E+00
  0.00000000E+00  0.00000000E+00  0.00000000E+00
  0.00000000E+00  0.00000000E+00  0.00000000E+00
  0.00000000E+00  0.00000000E+00  0.00000000E+00
  0.00000000E+00  0.00000000E+00  0.00000000E+00
  0.00000000E+00  0.00000000E+00  0.00000000E+00
  0.00000000E+00  0.00000000E+00  0.00000000E+00
  0.00000000E+00  0.00000000E+00  0.00000000E+00
  0.00000000E+00  0.00000000E+00  0.00000000E+00
  0.00000000E+00  0.00000000E+00  0.00000000E+00
  0.00000000E+00  0.00000000E+00  0.00000000E+00
  0.00000000E+00  0.00000000E+00  0.00000000E+00
  0.00000000E+00  0.00000000E+00  0.00000000E+00
  0.00000000E+00  0.00000000E+00  0.00000000E+00
  0.00000000E+00  0.00000000E+00  0.00000000E+00
  0.00000000E+00  0.00000000E+00  0.00000000E+00
  0.00000000E+00  0.00000000E+00  0.00000000E+00
  0.00000000E+00  0.00000000E+00  0.00000000E+00
  0.00000000E+00  0.00000000E+00  0.00000000E+00
  0.00000000E+00  0.00000000E+00  0.00000000E+00
  0.00000000E+00  0.00000000E+00  0.00000000E+00
  0.00000000E+00  0.00000000E+00  0.00000000E+00
  0.00000000E+00  0.00000000E+00  0.00000000E+00
  0.00000000E+00  0.00000000E+00  0.00000000E+00
  0.00000000E+00  0.00000000E+00  0.00000000E+00
  0.00000000E+00  0.00000000E+00  0.00000000E+00
  0.00000000E+00  0.00000000E+00  0.00000000E+00
  0.00000000E+00  0.00000000E+00  0.00000000E+00
  0.00000000E+00  0.00000000E+00  0.00000000E+00
  0.00000000E+00  0.00000000E+00  0.00000000E+00
  0.00000000E+00  0.00000000E+00  0.00000000E+00
  0.00000000E+00  0.00000000E+00  0.00000000E+00
  0.00000000E+00  0.00000000E+00  0.00000000E+00
  0.00000000E+00  0.00000000E+00  0.00000000E+00
  0.00000000E+00  0.00000000E+00  0.00000000E+00
  0.00000000E+00  0.00000000E+00  0.00000000E+00
  0.00000000E+00  0.00000000E+00  0.00000000E+00
  0.00000000E+00  0.00000000E+00  0.00000000E+00
  0.00000000E+00  0.00000000E+00  0.00000000E+00
  0.00000000E+00  0.00000000E+00  0.00000000E+00
  0.00000000E+00  0.00000000E+00  0.00000000E+00
  0.00000000E+00  0.00000000E+00  0.00000000E+00
  0.00000000E+00  0.00000000E+00  0.00000000E+00
  0.00000000E+00  0.00000000E+00  0.00000000E+00
  0.00000000E+00  0.00000000E+00  0.00000000E+00
  0.00000000E+00  0.00000000E+00  0.00000000E+00
  0.00000000E+00  0.00000000E+00  0.00000000E+00
  0.00000000E+00  0.00000000E+00  0.00000000E+00
  0.00000000E+00  0.00000000E+00  0.00000000E+00
  0.00000000E+00  0.00000000E+00  0.00000000E+00
  0.00000000E+00  0.00000000E+00  0.00000000E+00
  0.00000000E+00  0.00000000E+00  0.00000000E+00
  0.00000000E+00  0.00000000E+00  0.00000000E+00
  0.00000000E+00  0.00000000E+00  0.00000000E+00
  0.00000000E+00  0.00000000E+00  0.00000000E+00
  0.00000000E+00  0.00000000E+00  0.00000000E+00
  0.00000000E+00  0.00000000E+00  0.00000000E+00
  0.00000000E+00  0.00000000E+00  0.00000000E+00
  0.00000000E+00  0.00000000E+00  0.00000000E+00
  0.00000000E+00  0.00000000E+00  0.00000000E+00
  0.00000000E+00  0.00000000E+00  0.00000000E+00
  0.00000000E+00  0.00000000E+00  0.00000000E+00
  0.00000000E+00  0.00000000E+00  0.00000000E+00
  0.00000000E+00  0.00000000E+00  0.00000000E+00
  0.00000000E+00  0.00000000E+00  0.00000000E+00
  0.00000000E+00  0.00000000E+00  0.00000000E+00
  0.00000000E+00  0.00000000E+00  0.00000000E+00
  0.00000000E+00  0.00000000E+00  0.00000000E+00
  0.00000000E+00  0.00000000E+00  0.00000000E+00
  0.00000000E+00  0.00000000E+00  0.00000000E+00
  0.00000000E+00  0.00000000E+00  0.00000000E+00
  0.00000000E+00  0.00000000E+00  0.00000000E+00
  0.00000000E+00  0.00000000E+00  0.00000000E+00
  0.00000000E+00  0.00000000E+00  0.00000000E+00
  0.00000000E+00  0.00000000E+00  0.00000000E+00
  0.00000000E+00  0.00000000E+00  0.00000000E+00
  0.00000000E+00  0.00000000E+00  0.00000000E+00
  0.00000000E+00  0.00000000E+00  0.00000000E+00
  0.00000000E+00  0.00000000E+00  0.00000000E+00
  0.00000000E+00  0.00000000E+00  0.00000000E+00
  0.00000000E+00  0.00000000E+00  0.00000000E+00
  0.00000000E+00  0.00000000E+00  0.00000000E+00
