Generated by VASPKIT code
 1.000000
   11.5982000000000003    0.0000000000000000    0.0000000000000000
   -5.7990999999999975   10.0443358381726764    0.0000000000000000
    0.0000000000000000    0.0000000000000000   21.0482000000000014
   Ce   O 
    27    72
Selective Dynamics
Direct
    0.0000000000000000    0.0000000000000000    0.4599299999999999    T  T  T    Ce001
    0.2222200000000000    0.1111100000000000    0.3099600000000000    T  T  T    Ce002
    0.1111100000000000    0.2222200000000000    0.1599900000000000    F  F  F    Ce003
    0.3333300000000000    0.0000000000000000    0.4599299999999999    T  T  T    Ce004
    0.5555600000000001    0.1111100000000000    0.3099600000000000    T  T  T    Ce005
    0.4444400000000000    0.2222200000000000    0.1599900000000000    F  F  F    Ce006
    0.6666700000000000    0.0000000000000000    0.4599299999999999    T  T  T    Ce007
    0.8888899999999997    0.1111100000000000    0.3099600000000000    T  T  T    Ce008
    0.7777799999999999    0.2222200000000000    0.1599900000000000    F  F  F    Ce009
    0.0000000000000000    0.3333300000000000    0.4599299999999999    T  T  T    Ce010
    0.2222200000000000    0.4444400000000000    0.3099600000000000    T  T  T    Ce011
    0.1111100000000000    0.5555600000000001    0.1599900000000000    F  F  F    Ce012
    0.3333300000000000    0.3333300000000000    0.4599299999999999    T  T  T    Ce013
    0.5555600000000001    0.4444400000000000    0.3099600000000000    T  T  T    Ce014
    0.4444399999999999    0.5555600000000001    0.1599900000000000    F  F  F    Ce015
    0.6666700000000000    0.3333300000000000    0.4599299999999999    T  T  T    Ce016
    0.8888899999999997    0.4444400000000000    0.3099600000000000    T  T  T    Ce017
    0.7777799999999999    0.5555600000000001    0.1599900000000000    F  F  F    Ce018
    0.0000000000000000    0.6666700000000000    0.4599299999999999    T  T  T    Ce019
    0.2222200000000000    0.7777800000000000    0.3099600000000000    T  T  T    Ce020
    0.1111100000000000    0.8888900000000001    0.1599900000000000    F  F  F    Ce021
    0.3333300000000000    0.6666700000000000    0.4599299999999999    T  T  T    Ce022
    0.5555600000000001    0.7777800000000000    0.3099600000000000    T  T  T    Ce023
    0.4444399999999999    0.8888900000000001    0.1599900000000000    F  F  F    Ce024
    0.6666699999999999    0.6666700000000000    0.4599299999999999    T  T  T    Ce025
    0.8888899999999997    0.7777800000000000    0.3099600000000000    T  T  T    Ce026
    0.7777799999999999    0.8888900000000001    0.1599900000000000    F  F  F    Ce027
    0.0000000000000000    0.0000000000000000    0.1225000000000000    F  F  F     O001
    0.0000000000000000    0.0000000000000000    0.5724100000000000    T  T  T     O002
    0.1111100000000000    0.2222200000000000    0.2724700000000000    T  T  T     O003
    0.2222200000000000    0.1111100000000000    0.4224400000000000    T  T  T     O004
    0.1111100000000000    0.2222200000000000    0.0475100000000000    F  F  F     O005
    0.1111100000000000    0.2222200000000000    0.4974200000000000    T  T  T     O006
    0.0000000000000000    0.0000000000000000    0.3474500000000000    T  T  T     O007
    0.2222200000000000    0.1111100000000000    0.1974800000000000    F  F  F     O008
    0.3333300000000000    0.0000000000000000    0.1225000000000000    F  F  F     O009
    0.3333300000000000    0.0000000000000000    0.5724100000000000    T  T  T     O010
    0.4444400000000000    0.2222200000000000    0.2724700000000000    T  T  T     O011
    0.5555600000000001    0.1111100000000000    0.4224400000000000    T  T  T     O012
    0.4444400000000000    0.2222200000000000    0.0475100000000000    F  F  F     O013
    0.4444400000000000    0.2222200000000000    0.4974200000000000    T  T  T     O014
    0.3333300000000000    0.0000000000000000    0.3474500000000000    T  T  T     O015
    0.5555600000000001    0.1111100000000000    0.1974800000000000    F  F  F     O016
    0.6666700000000000    0.0000000000000000    0.1225000000000000    F  F  F     O017
    0.6666700000000000    0.0000000000000000    0.5724100000000000    T  T  T     O018
    0.7777799999999999    0.2222200000000000    0.2724700000000000    T  T  T     O019
    0.8888899999999997    0.1111100000000000    0.4224400000000000    T  T  T     O020
    0.7777799999999999    0.2222200000000000    0.0475100000000000    F  F  F     O021
    0.7777799999999999    0.2222200000000000    0.4974200000000000    T  T  T     O022
    0.6666700000000000    0.0000000000000000    0.3474500000000000    T  T  T     O023
    0.8888899999999997    0.1111100000000000    0.1974800000000000    F  F  F     O024
    0.0000000000000000    0.3333300000000000    0.1225000000000000    F  F  F     O025
    0.0000000000000000    0.3333300000000000    0.5724100000000000    T  T  T     O026
    0.1111100000000000    0.5555600000000001    0.2724700000000000    T  T  T     O027
    0.2222200000000000    0.4444400000000000    0.4224400000000000    T  T  T     O028
    0.1111100000000000    0.5555600000000001    0.0475100000000000    F  F  F     O029
    0.1111100000000000    0.5555600000000001    0.4974200000000000    T  T  T     O030
    0.0000000000000000    0.3333300000000000    0.3474500000000000    T  T  T     O031
    0.2222200000000000    0.4444400000000000    0.1974800000000000    F  F  F     O032
    0.3333300000000000    0.3333300000000000    0.1225000000000000    F  F  F     O033
    0.3333300000000000    0.3333300000000000    0.5724100000000000    T  T  T     O034
    0.4444399999999999    0.5555600000000001    0.2724700000000000    T  T  T     O035
    0.5555600000000001    0.4444400000000000    0.4224400000000000    T  T  T     O036
    0.4444399999999999    0.5555600000000001    0.0475100000000000    F  F  F     O037
    0.4444399999999999    0.5555600000000001    0.4974200000000000    T  T  T     O038
    0.3333300000000000    0.3333300000000000    0.3474500000000000    T  T  T     O039
    0.5555600000000001    0.4444400000000000    0.1974800000000000    F  F  F     O040
    0.6666700000000000    0.3333300000000000    0.1225000000000000    F  F  F     O041
    0.6666700000000000    0.3333300000000000    0.5724100000000000    T  T  T     O042
    0.7777799999999999    0.5555600000000001    0.2724700000000000    T  T  T     O043
    0.8888899999999997    0.4444400000000000    0.4224400000000000    T  T  T     O044
    0.7777799999999999    0.5555600000000001    0.0475100000000000    F  F  F     O045
    0.7777799999999999    0.5555600000000001    0.4974200000000000    T  T  T     O046
    0.6666700000000000    0.3333300000000000    0.3474500000000000    T  T  T     O047
    0.8888899999999997    0.4444400000000000    0.1974800000000000    F  F  F     O048
    0.0000000000000000    0.6666700000000000    0.1225000000000000    F  F  F     O049
    0.0000000000000000    0.6666700000000000    0.5724100000000000    T  T  T     O050
    0.1111100000000000    0.8888900000000001    0.2724700000000000    T  T  T     O051
    0.2222200000000000    0.7777800000000000    0.4224400000000000    T  T  T     O052
    0.1111100000000000    0.8888900000000001    0.0475100000000000    F  F  F     O053
    0.1111100000000000    0.8888900000000001    0.4974200000000000    T  T  T     O054
    0.0000000000000000    0.6666700000000000    0.3474500000000000    T  T  T     O055
    0.2222200000000000    0.7777800000000000    0.1974800000000000    F  F  F     O056
    0.3333300000000000    0.6666700000000000    0.1225000000000000    F  F  F     O057
    0.3333300000000000    0.6666700000000000    0.5724100000000000    T  T  T     O058
    0.4444399999999999    0.8888900000000001    0.2724700000000000    T  T  T     O059
    0.5555600000000001    0.7777800000000000    0.4224400000000000    T  T  T     O060
    0.4444399999999999    0.8888900000000001    0.0475100000000000    F  F  F     O061
    0.4444399999999999    0.8888900000000001    0.4974200000000000    T  T  T     O062
    0.3333300000000000    0.6666700000000000    0.3474500000000000    T  T  T     O063
    0.5555600000000001    0.7777800000000000    0.1974800000000000    F  F  F     O064
    0.6666699999999999    0.6666700000000000    0.1225000000000000    F  F  F     O065
    0.6666699999999999    0.6666700000000000    0.5724100000000000    T  T  T     O066
    0.7777799999999999    0.8888900000000001    0.2724700000000000    T  T  T     O067
    0.8888899999999997    0.7777800000000000    0.4224400000000000    T  T  T     O068
    0.7777799999999999    0.8888900000000001    0.0475100000000000    F  F  F     O069
    0.7777799999999999    0.8888900000000001    0.4974200000000000    T  T  T     O070
    0.6666699999999999    0.6666700000000000    0.3474500000000000    T  T  T     O071
    0.8888899999999997    0.7777800000000000    0.1974800000000000    F  F  F     O072
