Generated by VASPKIT code               
   1.00000000000000     
    11.5981998443999998    0.0000000000000000    0.0000000000000000
    -5.7990999221999999   10.0443357033999998    0.0000000000000000
     0.0000000000000000    0.0000000000000000   21.0482006073000001
  Ce              O               Ir            
    18    48     7
Selective dynamics
Direct
  0.0071858470381018  0.9981671739944474  0.4566057486435526   T   T   T
  0.2222200000000001  0.1111099999999965  0.3099599999999967   F   F   F
  0.3280540667104511  0.9953079961465653  0.4644247140036623   T   T   T
  0.5555599999999998  0.1111099999999965  0.3099599999999967   F   F   F
  0.6683898050216223  0.0033572500680728  0.4611357109877366   T   T   T
  0.8888900000000035  0.1111099999999965  0.3099599999999967   F   F   F
  0.9938701380072765  0.3314213545132992  0.4583573351356388   T   T   T
  0.2222200000000001  0.4444400000000002  0.3099599999999967   F   F   F
  0.3391564464244958  0.3408734815273179  0.4597549627054938   T   T   T
  0.5555599999999998  0.4444400000000002  0.3099599999999967   F   F   F
  0.6711315569218546  0.3307887744110312  0.4566470908489433   T   T   T
  0.8888900000000035  0.4444400000000002  0.3099599999999967   F   F   F
  0.0021275459084707  0.6714752645812152  0.4598523236531180   T   T   T
  0.2222200000000001  0.7777799999999999  0.3099599999999967   F   F   F
  0.3277381478127341  0.6630467328580215  0.4603627128056678   T   T   T
  0.5555599999999998  0.7777799999999999  0.3099599999999967   F   F   F
  0.6632905497037461  0.6637364771377432  0.4654564309494661   T   T   T
  0.8888900000000035  0.7777799999999999  0.3099599999999967   F   F   F
  0.9550949778563682  0.0525889440555128  0.6102571053933691   T   T   T
  0.1111099999999965  0.2222200000000001  0.2724699999999984   F   F   F
  0.2225830566214208  0.1183119056099716  0.4213395417246471   T   T   T
  0.1081960441556861  0.2196123485268316  0.5059550929693881   T   T   T
  0.0000000000000000  0.0000000000000000  0.3474500000000020   F   F   F
  0.4014584939487630  0.0697531967164091  0.5794247072168591   T   T   T
  0.4444400000000002  0.2222200000000001  0.2724699999999984   F   F   F
  0.5550477189776879  0.1065341214185025  0.4215645294890222   T   T   T
  0.4398110798246199  0.2181582275223429  0.4891505006365084   T   T   T
  0.3333299999999966  0.0000000000000000  0.3474500000000020   F   F   F
  0.6283255122350665  0.9172847415033120  0.5763153837022382   T   T   T
  0.7777799999999999  0.2222200000000001  0.2724699999999984   F   F   F
  0.8922706619165282  0.1099220306592788  0.4214474089311088   T   T   T
  0.7791490171543937  0.2206256381178134  0.4933412291202768   T   T   T
  0.6666700000000034  0.0000000000000000  0.3474500000000020   F   F   F
  0.0415484752119197  0.4218518031381913  0.6400889624087621   T   T   T
  0.1111099999999965  0.5555599999999998  0.2724699999999984   F   F   F
  0.2159103126732524  0.4323867796693783  0.4214339607252381   T   T   T
  0.0975408337733684  0.5388825145471848  0.5030075793919306   T   T   T
  0.0000000000000000  0.3333299999999966  0.3474500000000020   F   F   F
  0.2737391098852667  0.3735155005619814  0.6136246953445684   T   T   T
  0.4444400000000002  0.5555599999999998  0.2724699999999984   F   F   F
  0.5576396708973778  0.4502364535995725  0.4211602719437340   T   T   T
  0.4327579487489824  0.5531590874844776  0.5063590156406933   T   T   T
  0.3333299999999966  0.3333299999999966  0.3474500000000020   F   F   F
  0.6776202186770933  0.3475118275167310  0.6144378064408613   T   T   T
  0.7777799999999999  0.5555599999999998  0.2724699999999984   F   F   F
  0.8895668779922067  0.4473935245028430  0.4200043932983759   T   T   T
  0.7767746330084205  0.5472120181787623  0.5057391324639250   T   T   T
  0.6666700000000034  0.3333299999999966  0.3474500000000020   F   F   F
  0.9954525248282382  0.6729451427824458  0.5743636603210206   T   T   T
  0.1111099999999965  0.8888900000000035  0.2724699999999984   F   F   F
  0.2161701500333150  0.7777029528931509  0.4222080473729293   T   T   T
  0.1105633816453543  0.8953559740911529  0.4935011158641788   T   T   T
  0.0000000000000000  0.6666700000000034  0.3474500000000020   F   F   F
  0.2522842100936010  0.7392150454869209  0.5988953286078912   T   T   T
  0.4444400000000002  0.8888900000000035  0.2724699999999984   F   F   F
  0.5669577548894447  0.7829951740361069  0.4252172633561835   T   T   T
  0.4429725980584900  0.8977011556323554  0.5051746332437724   T   T   T
  0.3333299999999966  0.6666700000000034  0.3474500000000020   F   F   F
  0.6572034621684733  0.6913910157008100  0.5772807891902655   T   T   T
  0.7777799999999999  0.8888900000000035  0.2724699999999984   F   F   F
  0.8831106652322278  0.7720753096892339  0.4228710140922090   T   T   T
  0.7954718808240157  0.8965124945320854  0.5012552137890310   T   T   T
  0.6666700000000034  0.6666700000000034  0.3474500000000020   F   F   F
  0.4338697914696107  0.6732846505771434  0.6360460964858650   T   T   T
  0.5218007087964398  0.5021628248978817  0.6788417279095242   T   T   T
  0.5087557254341428  0.4124090846902643  0.5548667062783852   T   T   T
  0.4753902843129228  0.5392443693216775  0.6037493436247432   T   T   T
  0.1206265921977203  0.2140861976760193  0.5977677767261252   T   T   T
  0.5125604695444779  0.2509737125031038  0.5771766340142310   T   T   T
  0.8341966720868247  0.5052314049030651  0.5903865028483963   T   T   T
  0.7840197140368819  0.8942468905616270  0.5951366449640022   T   T   T
  0.4392038683619520  0.8124729874505151  0.5896037973633789   T   T   T
  0.0849632029606844  0.5774693191384710  0.6082202266206914   T   T   T
 
  0.00000000E+00  0.00000000E+00  0.00000000E+00
  0.00000000E+00  0.00000000E+00  0.00000000E+00
  0.00000000E+00  0.00000000E+00  0.00000000E+00
  0.00000000E+00  0.00000000E+00  0.00000000E+00
  0.00000000E+00  0.00000000E+00  0.00000000E+00
  0.00000000E+00  0.00000000E+00  0.00000000E+00
  0.00000000E+00  0.00000000E+00  0.00000000E+00
  0.00000000E+00  0.00000000E+00  0.00000000E+00
  0.00000000E+00  0.00000000E+00  0.00000000E+00
  0.00000000E+00  0.00000000E+00  0.00000000E+00
  0.00000000E+00  0.00000000E+00  0.00000000E+00
  0.00000000E+00  0.00000000E+00  0.00000000E+00
  0.00000000E+00  0.00000000E+00  0.00000000E+00
  0.00000000E+00  0.00000000E+00  0.00000000E+00
  0.00000000E+00  0.00000000E+00  0.00000000E+00
  0.00000000E+00  0.00000000E+00  0.00000000E+00
  0.00000000E+00  0.00000000E+00  0.00000000E+00
  0.00000000E+00  0.00000000E+00  0.00000000E+00
  0.00000000E+00  0.00000000E+00  0.00000000E+00
  0.00000000E+00  0.00000000E+00  0.00000000E+00
  0.00000000E+00  0.00000000E+00  0.00000000E+00
  0.00000000E+00  0.00000000E+00  0.00000000E+00
  0.00000000E+00  0.00000000E+00  0.00000000E+00
  0.00000000E+00  0.00000000E+00  0.00000000E+00
  0.00000000E+00  0.00000000E+00  0.00000000E+00
  0.00000000E+00  0.00000000E+00  0.00000000E+00
  0.00000000E+00  0.00000000E+00  0.00000000E+00
  0.00000000E+00  0.00000000E+00  0.00000000E+00
  0.00000000E+00  0.00000000E+00  0.00000000E+00
  0.00000000E+00  0.00000000E+00  0.00000000E+00
  0.00000000E+00  0.00000000E+00  0.00000000E+00
  0.00000000E+00  0.00000000E+00  0.00000000E+00
  0.00000000E+00  0.00000000E+00  0.00000000E+00
  0.00000000E+00  0.00000000E+00  0.00000000E+00
  0.00000000E+00  0.00000000E+00  0.00000000E+00
  0.00000000E+00  0.00000000E+00  0.00000000E+00
  0.00000000E+00  0.00000000E+00  0.00000000E+00
  0.00000000E+00  0.00000000E+00  0.00000000E+00
  0.00000000E+00  0.00000000E+00  0.00000000E+00
  0.00000000E+00  0.00000000E+00  0.00000000E+00
  0.00000000E+00  0.00000000E+00  0.00000000E+00
  0.00000000E+00  0.00000000E+00  0.00000000E+00
  0.00000000E+00  0.00000000E+00  0.00000000E+00
  0.00000000E+00  0.00000000E+00  0.00000000E+00
  0.00000000E+00  0.00000000E+00  0.00000000E+00
  0.00000000E+00  0.00000000E+00  0.00000000E+00
  0.00000000E+00  0.00000000E+00  0.00000000E+00
  0.00000000E+00  0.00000000E+00  0.00000000E+00
  0.00000000E+00  0.00000000E+00  0.00000000E+00
  0.00000000E+00  0.00000000E+00  0.00000000E+00
  0.00000000E+00  0.00000000E+00  0.00000000E+00
  0.00000000E+00  0.00000000E+00  0.00000000E+00
  0.00000000E+00  0.00000000E+00  0.00000000E+00
  0.00000000E+00  0.00000000E+00  0.00000000E+00
  0.00000000E+00  0.00000000E+00  0.00000000E+00
  0.00000000E+00  0.00000000E+00  0.00000000E+00
  0.00000000E+00  0.00000000E+00  0.00000000E+00
  0.00000000E+00  0.00000000E+00  0.00000000E+00
  0.00000000E+00  0.00000000E+00  0.00000000E+00
  0.00000000E+00  0.00000000E+00  0.00000000E+00
  0.00000000E+00  0.00000000E+00  0.00000000E+00
  0.00000000E+00  0.00000000E+00  0.00000000E+00
  0.00000000E+00  0.00000000E+00  0.00000000E+00
  0.00000000E+00  0.00000000E+00  0.00000000E+00
  0.00000000E+00  0.00000000E+00  0.00000000E+00
  0.00000000E+00  0.00000000E+00  0.00000000E+00
  0.00000000E+00  0.00000000E+00  0.00000000E+00
  0.00000000E+00  0.00000000E+00  0.00000000E+00
  0.00000000E+00  0.00000000E+00  0.00000000E+00
  0.00000000E+00  0.00000000E+00  0.00000000E+00
  0.00000000E+00  0.00000000E+00  0.00000000E+00
  0.00000000E+00  0.00000000E+00  0.00000000E+00
  0.00000000E+00  0.00000000E+00  0.00000000E+00
