Generated by VASPKIT code               
   1.00000000000000     
    11.5981998443999998    0.0000000000000000    0.0000000000000000
    -5.7990999221999999   10.0443357033999998    0.0000000000000000
     0.0000000000000000    0.0000000000000000   21.0482006073000001
  Ce              O               Ir            
    18    48     7
Selective dynamics
Direct
  0.0037020264398128  0.9966099631785378  0.4576608768690276   T   T   T
  0.2222200000000001  0.1111099999999965  0.3099599999999967   F   F   F
  0.3245659498988364  0.9961878462126934  0.4603820638330785   T   T   T
  0.5555599999999998  0.1111099999999965  0.3099599999999967   F   F   F
  0.6692991426744618  0.0054770841556932  0.4609193926827913   T   T   T
  0.8888900000000035  0.1111099999999965  0.3099599999999967   F   F   F
  0.9946611148099243  0.3309233074006255  0.4615807136197441   T   T   T
  0.2222200000000001  0.4444400000000002  0.3099599999999967   F   F   F
  0.3406534142475580  0.3442525436925368  0.4602009506659931   T   T   T
  0.5555599999999998  0.4444400000000002  0.3099599999999967   F   F   F
  0.6697230762764462  0.3306617446308590  0.4568446102420917   T   T   T
  0.8888900000000035  0.4444400000000002  0.3099599999999967   F   F   F
  0.0054965416045546  0.6759275526402443  0.4595787460708863   T   T   T
  0.2222200000000001  0.7777799999999999  0.3099599999999967   F   F   F
  0.3341786361724356  0.6656870354772323  0.4583684280453606   T   T   T
  0.5555599999999998  0.7777799999999999  0.3099599999999967   F   F   F
  0.6554461364610018  0.6574021353045008  0.4606791448114748   T   T   T
  0.8888900000000035  0.7777799999999999  0.3099599999999967   F   F   F
  0.0087656221315152  0.9948158174784041  0.5841558493076664   T   T   T
  0.1111099999999965  0.2222200000000001  0.2724699999999984   F   F   F
  0.2264526412333089  0.1180148340557914  0.4218834798965397   T   T   T
  0.1092069236725747  0.2183678223193142  0.5025524751786512   T   T   T
  0.0000000000000000  0.0000000000000000  0.3474500000000020   F   F   F
  0.3364358379248429  0.0323866901564271  0.5804587977357901   T   T   T
  0.4444400000000002  0.2222200000000001  0.2724699999999984   F   F   F
  0.5513389618908409  0.1075358014512799  0.4220458086873528   T   T   T
  0.4462720059682663  0.2189766916275432  0.4984736790989182   T   T   T
  0.3333299999999966  0.0000000000000000  0.3474500000000020   F   F   F
  0.6384498662388454  0.9769520608366061  0.5805251851347575   T   T   T
  0.7777799999999999  0.2222200000000001  0.2724699999999984   F   F   F
  0.8912292905636989  0.1086582263330366  0.4235049783440608   T   T   T
  0.7771602038850791  0.2220676230954254  0.4905752480213803   T   T   T
  0.6666700000000034  0.0000000000000000  0.3474500000000020   F   F   F
  0.0215719546048581  0.3604281523920702  0.5796078335138631   T   T   T
  0.1111099999999965  0.5555599999999998  0.2724699999999984   F   F   F
  0.2138552530373284  0.4314765322620698  0.4223720561951056   T   T   T
  0.1066087203223926  0.5599230903795083  0.5029781583426512   T   T   T
  0.0000000000000000  0.3333299999999966  0.3474500000000020   F   F   F
  0.3108124358755032  0.3441936312730103  0.5906178800734192   T   T   T
  0.4444400000000002  0.5555599999999998  0.2724699999999984   F   F   F
  0.5549660002386727  0.4438587662873546  0.4143611553704721   T   T   T
  0.4361545418041738  0.5604301054640205  0.4992309362409389   T   T   T
  0.3333299999999966  0.3333299999999966  0.3474500000000020   F   F   F
  0.6632577825629991  0.3390186427856920  0.5916336979917020   T   T   T
  0.7777799999999999  0.5555599999999998  0.2724699999999984   F   F   F
  0.8924471126227890  0.4479704468827053  0.4217596141390187   T   T   T
  0.7907540873149330  0.5572740329910162  0.4969391223529538   T   T   T
  0.6666700000000034  0.3333299999999966  0.3474500000000020   F   F   F
  0.9684416252108292  0.6620406975757316  0.5813246604972121   T   T   T
  0.1111099999999965  0.8888900000000035  0.2724699999999984   F   F   F
  0.2198005085482558  0.7809409320126938  0.4208827210601271   T   T   T
  0.1102165306103738  0.8906360462685756  0.4890120062710113   T   T   T
  0.0000000000000000  0.6666700000000034  0.3474500000000020   F   F   F
  0.3039972660190805  0.6972925884850051  0.5943675311458982   T   T   T
  0.4444400000000002  0.8888900000000035  0.2724699999999984   F   F   F
  0.5684980351360008  0.7860485332322035  0.4227393670137964   T   T   T
  0.4399829908073800  0.8935626735617639  0.5034435444781109   T   T   T
  0.3333299999999966  0.6666700000000034  0.3474500000000020   F   F   F
  0.6582225987901464  0.6916724811616547  0.5887462829801613   T   T   T
  0.7777799999999999  0.8888900000000035  0.2724699999999984   F   F   F
  0.8820597886389877  0.7738931073198529  0.4218605080627299   T   T   T
  0.7820415491281387  0.8914328976605540  0.5026861306611414   T   T   T
  0.6666700000000034  0.6666700000000034  0.3474500000000020   F   F   F
  0.4169530540547686  0.5950740482800585  0.6439170932116344   T   T   T
  0.5545655748223002  0.4563733329407904  0.6733031096645766   T   T   T
  0.5513852220945087  0.4547242642796603  0.5378004109936186   T   T   T
  0.4919959242225541  0.5146500828906984  0.6039749285514392   T   T   T
  0.1547256338805817  0.1699163096268436  0.5842171907963777   T   T   T
  0.4947368252472849  0.1844034667889305  0.5832467949077722   T   T   T
  0.8170303497616398  0.5051599146921721  0.5834117171754857   T   T   T
  0.8350970751460961  0.8496210759390687  0.5838222646634836   T   T   T
  0.4702503737025092  0.8428357508041431  0.5872976783567694   T   T   T
  0.1543034034205989  0.5294262119395158  0.5872742564318140   T   T   T
 
  0.00000000E+00  0.00000000E+00  0.00000000E+00
  0.00000000E+00  0.00000000E+00  0.00000000E+00
  0.00000000E+00  0.00000000E+00  0.00000000E+00
  0.00000000E+00  0.00000000E+00  0.00000000E+00
  0.00000000E+00  0.00000000E+00  0.00000000E+00
  0.00000000E+00  0.00000000E+00  0.00000000E+00
  0.00000000E+00  0.00000000E+00  0.00000000E+00
  0.00000000E+00  0.00000000E+00  0.00000000E+00
  0.00000000E+00  0.00000000E+00  0.00000000E+00
  0.00000000E+00  0.00000000E+00  0.00000000E+00
  0.00000000E+00  0.00000000E+00  0.00000000E+00
  0.00000000E+00  0.00000000E+00  0.00000000E+00
  0.00000000E+00  0.00000000E+00  0.00000000E+00
  0.00000000E+00  0.00000000E+00  0.00000000E+00
  0.00000000E+00  0.00000000E+00  0.00000000E+00
  0.00000000E+00  0.00000000E+00  0.00000000E+00
  0.00000000E+00  0.00000000E+00  0.00000000E+00
  0.00000000E+00  0.00000000E+00  0.00000000E+00
  0.00000000E+00  0.00000000E+00  0.00000000E+00
  0.00000000E+00  0.00000000E+00  0.00000000E+00
  0.00000000E+00  0.00000000E+00  0.00000000E+00
  0.00000000E+00  0.00000000E+00  0.00000000E+00
  0.00000000E+00  0.00000000E+00  0.00000000E+00
  0.00000000E+00  0.00000000E+00  0.00000000E+00
  0.00000000E+00  0.00000000E+00  0.00000000E+00
  0.00000000E+00  0.00000000E+00  0.00000000E+00
  0.00000000E+00  0.00000000E+00  0.00000000E+00
  0.00000000E+00  0.00000000E+00  0.00000000E+00
  0.00000000E+00  0.00000000E+00  0.00000000E+00
  0.00000000E+00  0.00000000E+00  0.00000000E+00
  0.00000000E+00  0.00000000E+00  0.00000000E+00
  0.00000000E+00  0.00000000E+00  0.00000000E+00
  0.00000000E+00  0.00000000E+00  0.00000000E+00
  0.00000000E+00  0.00000000E+00  0.00000000E+00
  0.00000000E+00  0.00000000E+00  0.00000000E+00
  0.00000000E+00  0.00000000E+00  0.00000000E+00
  0.00000000E+00  0.00000000E+00  0.00000000E+00
  0.00000000E+00  0.00000000E+00  0.00000000E+00
  0.00000000E+00  0.00000000E+00  0.00000000E+00
  0.00000000E+00  0.00000000E+00  0.00000000E+00
  0.00000000E+00  0.00000000E+00  0.00000000E+00
  0.00000000E+00  0.00000000E+00  0.00000000E+00
  0.00000000E+00  0.00000000E+00  0.00000000E+00
  0.00000000E+00  0.00000000E+00  0.00000000E+00
  0.00000000E+00  0.00000000E+00  0.00000000E+00
  0.00000000E+00  0.00000000E+00  0.00000000E+00
  0.00000000E+00  0.00000000E+00  0.00000000E+00
  0.00000000E+00  0.00000000E+00  0.00000000E+00
  0.00000000E+00  0.00000000E+00  0.00000000E+00
  0.00000000E+00  0.00000000E+00  0.00000000E+00
  0.00000000E+00  0.00000000E+00  0.00000000E+00
  0.00000000E+00  0.00000000E+00  0.00000000E+00
  0.00000000E+00  0.00000000E+00  0.00000000E+00
  0.00000000E+00  0.00000000E+00  0.00000000E+00
  0.00000000E+00  0.00000000E+00  0.00000000E+00
  0.00000000E+00  0.00000000E+00  0.00000000E+00
  0.00000000E+00  0.00000000E+00  0.00000000E+00
  0.00000000E+00  0.00000000E+00  0.00000000E+00
  0.00000000E+00  0.00000000E+00  0.00000000E+00
  0.00000000E+00  0.00000000E+00  0.00000000E+00
  0.00000000E+00  0.00000000E+00  0.00000000E+00
  0.00000000E+00  0.00000000E+00  0.00000000E+00
  0.00000000E+00  0.00000000E+00  0.00000000E+00
  0.00000000E+00  0.00000000E+00  0.00000000E+00
  0.00000000E+00  0.00000000E+00  0.00000000E+00
  0.00000000E+00  0.00000000E+00  0.00000000E+00
  0.00000000E+00  0.00000000E+00  0.00000000E+00
  0.00000000E+00  0.00000000E+00  0.00000000E+00
  0.00000000E+00  0.00000000E+00  0.00000000E+00
  0.00000000E+00  0.00000000E+00  0.00000000E+00
  0.00000000E+00  0.00000000E+00  0.00000000E+00
  0.00000000E+00  0.00000000E+00  0.00000000E+00
  0.00000000E+00  0.00000000E+00  0.00000000E+00
