Generated by VASPKIT code
 1.000000
   11.5981998443999998    0.0000000000000000    0.0000000000000000
   -5.7990999221999999   10.0443357033999998    0.0000000000000000
    0.0000000000000000    0.0000000000000000   21.0482006073000001
   Ce   O    Ir
    18    48     7
Selective Dynamics
Direct
    0.0030600000000000    0.9970100000000000    0.4590400000000000    T  T  T    Ce001
    0.2222200000000000    0.1111100000000000    0.3099600000000000    F  F  F    Ce002
    0.3254900000000000    0.9969400000000000    0.4615600000000000    T  T  T    Ce003
    0.5555600000000001    0.1111100000000000    0.3099600000000000    F  F  F    Ce004
    0.6695600000000000    0.0057500000000000    0.4639500000000000    T  T  T    Ce005
    0.8888900000000000    0.1111100000000000    0.3099600000000000    F  F  F    Ce006
    0.9942900000000000    0.3304300000000000    0.4638800000000000    T  T  T    Ce007
    0.2222200000000000    0.4444400000000000    0.3099600000000000    F  F  F    Ce008
    0.3328200000000000    0.3338800000000000    0.4584800000000000    T  T  T    Ce009
    0.5555600000000001    0.4444400000000000    0.3099600000000000    F  F  F    Ce010
    0.6713500000000000    0.3287700000000000    0.4565400000000000    T  T  T    Ce011
    0.8888900000000000    0.4444400000000000    0.3099600000000000    F  F  F    Ce012
    0.0031600000000000    0.6745300000000000    0.4615400000000000    T  T  T    Ce013
    0.2222200000000000    0.7777800000000000    0.3099600000000000    F  F  F    Ce014
    0.3340600000000000    0.6659400000000000    0.4597500000000000    T  T  T    Ce015
    0.5555600000000001    0.7777800000000000    0.3099600000000000    F  F  F    Ce016
    0.6661300000000000    0.6672100000000000    0.4587300000000000    T  T  T    Ce017
    0.8888900000000000    0.7777800000000000    0.3099600000000000    F  F  F    Ce018
    0.0056500000000000    0.9948500000000000    0.5821000000000000    T  T  T     O001
    0.1111100000000000    0.2222200000000000    0.2724700000000000    F  F  F     O002
    0.2265600000000000    0.1176500000000000    0.4216000000000000    T  T  T     O003
    0.1091800000000000    0.2188500000000000    0.5029700000000000    T  T  T     O004
    0.0000000000000000    0.0000000000000000    0.3474500000000000    F  F  F     O005
    0.3355600000000000    0.0316100000000000    0.5793800000000000    T  T  T     O006
    0.4444400000000000    0.2222200000000000    0.2724700000000000    F  F  F     O007
    0.5503000000000000    0.1072700000000000    0.4219100000000000    T  T  T     O008
    0.4538200000000000    0.2352300000000000    0.5006000000000000    T  T  T     O009
    0.3333300000000000    0.0000000000000000    0.3474500000000000    F  F  F     O010
    0.6428300000000000    0.9832200000000000    0.5780400000000000    T  T  T     O011
    0.7777800000000000    0.2222200000000000    0.2724700000000000    F  F  F     O012
    0.8915800000000000    0.1085700000000000    0.4233900000000000    T  T  T     O013
    0.7776100000000000    0.2223500000000000    0.4903500000000000    T  T  T     O014
    0.6666700000000000    0.0000000000000000    0.3474500000000000    F  F  F     O015
    0.0163000000000000    0.3568800000000000    0.5780000000000000    T  T  T     O016
    0.1111100000000000    0.5555600000000001    0.2724700000000000    F  F  F     O017
    0.2176300000000000    0.4341400000000000    0.4228000000000000    T  T  T     O018
    0.1080600000000000    0.5620500000000000    0.5022000000000000    T  T  T     O019
    0.0000000000000000    0.3333300000000000    0.3474500000000000    F  F  F     O020
    0.3165600000000000    0.3476800000000000    0.5935900000000000    T  T  T     O021
    0.4444400000000000    0.5555600000000001    0.2724700000000000    F  F  F     O022
    0.5545800000000000    0.4456400000000000    0.4204300000000000    T  T  T     O023
    0.4468600000000000    0.5524200000000000    0.5029300000000000    T  T  T     O024
    0.3333300000000000    0.3333300000000000    0.3474500000000000    F  F  F     O025
    0.6592000000000000    0.3411800000000000    0.5912700000000000    T  T  T     O026
    0.7777800000000000    0.5555600000000001    0.2724700000000000    F  F  F     O027
    0.8927700000000000    0.4496500000000000    0.4218600000000000    T  T  T     O028
    0.7650800000000000    0.5460800000000000    0.5006400000000000    T  T  T     O029
    0.6666700000000000    0.3333300000000000    0.3474500000000000    F  F  F     O030
    0.9699000000000000    0.6636700000000000    0.5790800000000000    T  T  T     O031
    0.1111100000000000    0.8888900000000000    0.2724700000000000    F  F  F     O032
    0.2204400000000000    0.7796200000000000    0.4211600000000000    T  T  T     O033
    0.1103800000000000    0.8897300000000000    0.4883400000000000    T  T  T     O034
    0.0000000000000000    0.6666700000000000    0.3474500000000000    F  F  F     O035
    0.3051700000000000    0.6945300000000000    0.5970400000000000    T  T  T     O036
    0.4444400000000000    0.8888900000000000    0.2724700000000000    F  F  F     O037
    0.5658600000000000    0.7823300000000000    0.4229400000000000    T  T  T     O038
    0.4377200000000000    0.8920900000000000    0.5023200000000000    T  T  T     O039
    0.3333300000000000    0.6666700000000000    0.3474500000000000    F  F  F     O040
    0.6542200000000000    0.6809800000000000    0.5914500000000000    T  T  T     O041
    0.7777800000000000    0.8888900000000000    0.2724700000000000    F  F  F     O042
    0.8822600000000000    0.7734700000000000    0.4216500000000000    T  T  T     O043
    0.7814000000000000    0.8914500000000000    0.5029800000000000    T  T  T     O044
    0.6666700000000000    0.6666700000000000    0.3474500000000000    F  F  F     O045
    0.4292500000000000    0.5866700000000000    0.6528300000000000    T  T  T     O046
    0.5441500000000000    0.4727200000000000    0.6725500000000000    T  T  T     O047
    0.5706599999999999    0.4578000000000000    0.5286300000000000    T  T  T     O048
    0.4848100000000000    0.5141500000000000    0.5878000000000000    T  T  T    Ir001
    0.1596000000000000    0.1734000000000000    0.5837700000000000    T  T  T    Ir002
    0.4928800000000000    0.1856600000000000    0.5827100000000000    T  T  T    Ir003
    0.8154700000000000    0.5067100000000000    0.5825300000000000    T  T  T    Ir004
    0.8274400000000000    0.8406400000000001    0.5833900000000000    T  T  T    Ir005
    0.4731100000000000    0.8463200000000000    0.5861499999999999    T  T  T    Ir006
    0.1535500000000000    0.5264300000000000    0.5860700000000000    T  T  T    Ir007
