CONTCAR
1.0
       11.5981998444         0.0000000000         0.0000000000
       -5.7990999222        10.0443357034         0.0000000000
        0.0000000000         0.0000000000        21.0482006073
   Ce    O   Ir
   18   48    7
Direct
     0.003060000         0.997010000         0.459040000
     0.222220000         0.111110000         0.309960000
     0.325490000         0.996940000         0.461560000
     0.555560000         0.111110000         0.309960000
     0.669560000         0.005750000         0.463950000
     0.888890000         0.111110000         0.309960000
     0.994290000         0.330430000         0.463880000
     0.222220000         0.444440000         0.309960000
     0.332820000         0.333880000         0.458480000
     0.555560000         0.444440000         0.309960000
     0.671350000         0.328770000         0.456540000
     0.888890000         0.444440000         0.309960000
     0.003160000         0.674530000         0.461540000
     0.222220000         0.777780000         0.309960000
     0.334060000         0.665940000         0.459750000
     0.555560000         0.777780000         0.309960000
     0.666130000         0.667210000         0.458730000
     0.888890000         0.777780000         0.309960000
     0.005650000         0.994850000         0.582100000
     0.111110000         0.222220000         0.272470000
     0.226560000         0.117650000         0.421600000
     0.109180000         0.218850000         0.502970000
     0.000000000         0.000000000         0.347450000
     0.335560000         0.031610000         0.579380000
     0.444440000         0.222220000         0.272470000
     0.550300000         0.107270000         0.421910000
     0.453820000         0.235230000         0.500600000
     0.333330000         0.000000000         0.347450000
     0.642830000         0.983220000         0.578040000
     0.777780000         0.222220000         0.272470000
     0.891580000         0.108570000         0.423390000
     0.777610000         0.222350000         0.490350000
     0.666670000         0.000000000         0.347450000
     0.016300000         0.356880000         0.578000000
     0.111110000         0.555560000         0.272470000
     0.217630000         0.434140000         0.422800000
     0.108060000         0.562050000         0.502200000
     0.000000000         0.333330000         0.347450000
     0.316560000         0.347680000         0.593590000
     0.444440000         0.555560000         0.272470000
     0.554580000         0.445640000         0.420430000
     0.446860000         0.552420000         0.502930000
     0.333330000         0.333330000         0.347450000
     0.659200000         0.341180000         0.591270000
     0.777780000         0.555560000         0.272470000
     0.892770000         0.449650000         0.421860000
     0.765080000         0.546080000         0.500640000
     0.666670000         0.333330000         0.347450000
     0.969900000         0.663670000         0.579080000
     0.111110000         0.888890000         0.272470000
     0.220440000         0.779620000         0.421160000
     0.110380000         0.889730000         0.488340000
     0.000000000         0.666670000         0.347450000
     0.305170000         0.694530000         0.597040000
     0.444440000         0.888890000         0.272470000
     0.565860000         0.782330000         0.422940000
     0.437720000         0.892090000         0.502320000
     0.333330000         0.666670000         0.347450000
     0.654220000         0.680980000         0.591450000
     0.777780000         0.888890000         0.272470000
     0.882260000         0.773470000         0.421650000
     0.781400000         0.891450000         0.502980000
     0.666670000         0.666670000         0.347450000
     0.429250000         0.586670000         0.652830000
     0.544150000         0.472720000         0.672550000
     0.570660000         0.457800000         0.528630000
     0.484810000         0.514150000         0.587800000
     0.159600000         0.173400000         0.583770000
     0.492880000         0.185660000         0.582710000
     0.815470000         0.506710000         0.582530000
     0.827440000         0.840640000         0.583390000
     0.473110000         0.846320000         0.586150000
     0.153550000         0.526430000         0.586070000
