Al3C                                    
   1.00000000000000     
     2.8637824638055176    0.0000000000000000    0.0000000000000000
     1.4318912319027588    2.4801083645679673    0.0000000000000000
     0.0000000000000000    0.0000000000000000   20.0000000000000000
   Al   C 
     3     1
Direct
  0.8333333333333357  0.5000000000000000  0.3380377094472053
  0.1666666666666643  0.8333333333333357  0.4551658399666916
  0.5000000000000000  0.1666666666666643  0.5671613266702029
  0.5000000000000000  0.1666666666666643  0.6665485534267985
 
  0.00000000E+00  0.00000000E+00  0.00000000E+00
  0.00000000E+00  0.00000000E+00  0.00000000E+00
  0.00000000E+00  0.00000000E+00  0.00000000E+00
  0.00000000E+00  0.00000000E+00  0.00000000E+00
