Al3C
1.0000000000000000
   2.8637824638055176    0.0000000000000000    0.0000000000000000
   1.4318912319027588    2.4801083645679673    0.0000000000000000
   0.0000000000000000    0.0000000000000000   20.0000000000000000
Al C
3 1
Direct
   0.8333333333333333    0.5000000000000000    0.3380865704891008
   0.1666666666666666    0.8333333333333334    0.4550000000000000
   0.4999999999999999    0.1666666666666667    0.5719134295108992
   0.4999999999999999    0.1666666666666667    0.6619134295108993
