1\(2)                                   
   1.00000000000000     
    11.5981998443999998    0.0000000000000000    0.0000000000000000
    -5.7990999221999999   10.0443357033999998    0.0000000000000000
     0.0000000000000000    0.0000000000000000   21.0482006073000001
  Ce              O               Ir            
    18    48     7
Direct
  0.0209783641502264  0.0007998458572093  0.4529376266752236
  0.2400421986115191  0.1164271281165234  0.3026994313997344
  0.3464417377635738  0.0065719856909156  0.4550289055331908
  0.5712338615517790  0.1161232417329606  0.3016036117957377
  0.6854690928012068  0.0123928443969828  0.4516120260918408
  0.9065664788470105  0.1165545526293886  0.3039449403022872
  0.0108127978422713  0.3338007078665176  0.4579207616345551
  0.2388937936931204  0.4485637895684961  0.3042780076191998
  0.3497631070389545  0.3396562819456749  0.4548465763531169
  0.5723251443169786  0.4511673753846280  0.3036300685590237
  0.6856032932251038  0.3329364573640114  0.4512400177898510
  0.9071008830767705  0.4481122637060939  0.3028966958679492
  0.0254641328880624  0.6792688801272584  0.4507884776176772
  0.2405731443602316  0.7837809311825229  0.3027831037487880
  0.3515945686332527  0.6707136029910890  0.4547196230585858
  0.5726279503767983  0.7810359979936974  0.3046856749684537
  0.6811436462429673  0.6672521617784436  0.4587984482973977
  0.9040227905375595  0.7810961950282675  0.3035786333193614
  0.9682966430096052  0.0258799030879478  0.6014842695618376
  0.1282163275309388  0.2261907826379194  0.2664158117250964
  0.2399360906669734  0.1257492426408558  0.4169264476472274
  0.1109237828839681  0.2119063916159641  0.5005917640732906
  0.0187924771658105  0.0039316402811717  0.3436068673992645
  0.2513175726243788  0.1446137621791861  0.6583038161732617
  0.4616433266252189  0.2292052527633343  0.2652241161772392
  0.5731783626304073  0.1162065679343965  0.4134435946514778
  0.4740322129125428  0.2359981457571666  0.5032614413215687
  0.3486487991357147  0.0071278621884173  0.3395522116864275
  0.4492238555752353  0.8669590349536649  0.6765777799507944
  0.7963577415869980  0.2279089970711189  0.2652539090007227
  0.9045860143590361  0.1115427441250367  0.4165335403632962
  0.7914687871358834  0.2255174637878892  0.4896392371364114
  0.6851042073244201  0.0082406733256620  0.3419003096752928
  0.0484639838829428  0.3598690247057438  0.5810527774848284
  0.1257230285135670  0.5570422270605176  0.2662803679906357
  0.2332605302576921  0.4393982754940067  0.4190438513906934
  0.1063486193035147  0.5561600067886799  0.5025165646499421
  0.0157540661100474  0.3349045285039692  0.3442128852201492
  0.3367265291374729  0.3301789638198868  0.5730043728589423
  0.4619393928284197  0.5583813152161323  0.2649334961756378
  0.5703965930140200  0.4424955945306516  0.4181753779486519
  0.4537972623980461  0.5554326075962839  0.5053495134801773
  0.3520840511058529  0.3414100046854293  0.3430652140262487
  0.4233785128329235  0.0525814914350157  0.5993543545768175
  0.7953075735394042  0.5610934623443845  0.2666490503373164
  0.9072863711854882  0.4494143502391544  0.4135844073992399
  0.8172053151082279  0.5512181129261077  0.5020278371491096
  0.6837220425576617  0.3374292877395333  0.3421443629705031
  0.8637146922667271  0.4847301911990069  0.6487715147187771
  0.1266854586700602  0.8936748911404836  0.2654512242827867
  0.2407266642319293  0.7819648002944185  0.4138532457040826
  0.1174707834323853  0.8865517802563935  0.4904323302975840
  0.0187513869658144  0.6729895249826646  0.3415574086680316
  0.3178164678215114  0.7131724373396362  0.5648272138429080
  0.4621709173834302  0.8951067009240993  0.2662001446180973
  0.5779689948388829  0.7935153459104739  0.4177315376499247
  0.4809789988102331  0.9224360174078523  0.5115628962274235
  0.3513023178168708  0.6680918573192955  0.3387636645227257
  0.6303687565388598  0.7321690052552243  0.6125097615675407
  0.7956069336917692  0.8942168237891910  0.2672648652357837
  0.9032366631502284  0.7796282606871719  0.4155297227027981
  0.7973017861313597  0.9036902318006247  0.5020819482956723
  0.6793885564384914  0.6689335125419800  0.3422059026168991
  0.3213836994450831  0.5425591461802719  0.6363698123582920
  0.6271861121821928  0.5176684641883107  0.5656918650571505
  0.5086787832317897  0.4905059492303128  0.6800988074789617
  0.4743679756950303  0.5265195779000933  0.6015733015908380
  0.1457463584091746  0.1613285420365343  0.5907237101296366
  0.3682141018598964  0.1770887735667896  0.5858486606423806
  0.7749207126169827  0.5110835351817915  0.5924213026723422
  0.7939443616026056  0.8757812928453766  0.5925779241283229
  0.4123135495986748  0.8858056499473146  0.5999042331918123
  0.1879279082702255  0.5219157272787640  0.5820248209651158
 
  0.00000000E+00  0.00000000E+00  0.00000000E+00
  0.00000000E+00  0.00000000E+00  0.00000000E+00
  0.00000000E+00  0.00000000E+00  0.00000000E+00
  0.00000000E+00  0.00000000E+00  0.00000000E+00
  0.00000000E+00  0.00000000E+00  0.00000000E+00
  0.00000000E+00  0.00000000E+00  0.00000000E+00
  0.00000000E+00  0.00000000E+00  0.00000000E+00
  0.00000000E+00  0.00000000E+00  0.00000000E+00
  0.00000000E+00  0.00000000E+00  0.00000000E+00
  0.00000000E+00  0.00000000E+00  0.00000000E+00
  0.00000000E+00  0.00000000E+00  0.00000000E+00
  0.00000000E+00  0.00000000E+00  0.00000000E+00
  0.00000000E+00  0.00000000E+00  0.00000000E+00
  0.00000000E+00  0.00000000E+00  0.00000000E+00
  0.00000000E+00  0.00000000E+00  0.00000000E+00
  0.00000000E+00  0.00000000E+00  0.00000000E+00
  0.00000000E+00  0.00000000E+00  0.00000000E+00
  0.00000000E+00  0.00000000E+00  0.00000000E+00
  0.00000000E+00  0.00000000E+00  0.00000000E+00
  0.00000000E+00  0.00000000E+00  0.00000000E+00
  0.00000000E+00  0.00000000E+00  0.00000000E+00
  0.00000000E+00  0.00000000E+00  0.00000000E+00
  0.00000000E+00  0.00000000E+00  0.00000000E+00
  0.00000000E+00  0.00000000E+00  0.00000000E+00
  0.00000000E+00  0.00000000E+00  0.00000000E+00
  0.00000000E+00  0.00000000E+00  0.00000000E+00
  0.00000000E+00  0.00000000E+00  0.00000000E+00
  0.00000000E+00  0.00000000E+00  0.00000000E+00
  0.00000000E+00  0.00000000E+00  0.00000000E+00
  0.00000000E+00  0.00000000E+00  0.00000000E+00
  0.00000000E+00  0.00000000E+00  0.00000000E+00
  0.00000000E+00  0.00000000E+00  0.00000000E+00
  0.00000000E+00  0.00000000E+00  0.00000000E+00
  0.00000000E+00  0.00000000E+00  0.00000000E+00
  0.00000000E+00  0.00000000E+00  0.00000000E+00
  0.00000000E+00  0.00000000E+00  0.00000000E+00
  0.00000000E+00  0.00000000E+00  0.00000000E+00
  0.00000000E+00  0.00000000E+00  0.00000000E+00
  0.00000000E+00  0.00000000E+00  0.00000000E+00
  0.00000000E+00  0.00000000E+00  0.00000000E+00
  0.00000000E+00  0.00000000E+00  0.00000000E+00
  0.00000000E+00  0.00000000E+00  0.00000000E+00
  0.00000000E+00  0.00000000E+00  0.00000000E+00
  0.00000000E+00  0.00000000E+00  0.00000000E+00
  0.00000000E+00  0.00000000E+00  0.00000000E+00
  0.00000000E+00  0.00000000E+00  0.00000000E+00
  0.00000000E+00  0.00000000E+00  0.00000000E+00
  0.00000000E+00  0.00000000E+00  0.00000000E+00
  0.00000000E+00  0.00000000E+00  0.00000000E+00
  0.00000000E+00  0.00000000E+00  0.00000000E+00
  0.00000000E+00  0.00000000E+00  0.00000000E+00
  0.00000000E+00  0.00000000E+00  0.00000000E+00
  0.00000000E+00  0.00000000E+00  0.00000000E+00
  0.00000000E+00  0.00000000E+00  0.00000000E+00
  0.00000000E+00  0.00000000E+00  0.00000000E+00
  0.00000000E+00  0.00000000E+00  0.00000000E+00
  0.00000000E+00  0.00000000E+00  0.00000000E+00
  0.00000000E+00  0.00000000E+00  0.00000000E+00
  0.00000000E+00  0.00000000E+00  0.00000000E+00
  0.00000000E+00  0.00000000E+00  0.00000000E+00
  0.00000000E+00  0.00000000E+00  0.00000000E+00
  0.00000000E+00  0.00000000E+00  0.00000000E+00
  0.00000000E+00  0.00000000E+00  0.00000000E+00
  0.00000000E+00  0.00000000E+00  0.00000000E+00
  0.00000000E+00  0.00000000E+00  0.00000000E+00
  0.00000000E+00  0.00000000E+00  0.00000000E+00
  0.00000000E+00  0.00000000E+00  0.00000000E+00
  0.00000000E+00  0.00000000E+00  0.00000000E+00
  0.00000000E+00  0.00000000E+00  0.00000000E+00
  0.00000000E+00  0.00000000E+00  0.00000000E+00
  0.00000000E+00  0.00000000E+00  0.00000000E+00
  0.00000000E+00  0.00000000E+00  0.00000000E+00
  0.00000000E+00  0.00000000E+00  0.00000000E+00
