1\(2)                                   
   1.00000000000000     
    11.5981998443999998    0.0000000000000000    0.0000000000000000
    -5.7990999221999999   10.0443357033999998    0.0000000000000000
     0.0000000000000000    0.0000000000000000   21.0482006073000001
  Ce              O               Ir            
    18    48     7
Direct
  0.0116106224505094  0.9949443523145883  0.4562678126947495
  0.2311074932206391  0.1123272879279524  0.3053504681948431
  0.3369382573420797  0.0000069593538182  0.4546185097465278
  0.5635171850473487  0.1102292890728669  0.3012650395908236
  0.6821682091269673  0.0065434823942503  0.4513706996352189
  0.8999400073302247  0.1126269330028192  0.3051606244724740
  0.0018560710332333  0.3316855887283901  0.4593433633278678
  0.2306967483710094  0.4427988054358541  0.3067183662659215
  0.3398052281121767  0.3359543374451723  0.4621103205571765
  0.5592160931483757  0.4435156592630735  0.3039810536838800
  0.6790560413399830  0.3273239633113791  0.4479219976805140
  0.8991895980325784  0.4452952693051573  0.3017331721488364
  0.0150751408897754  0.6776948893345787  0.4514855163310162
  0.2298863944270624  0.7783795428498885  0.3034673472976407
  0.3407397933140537  0.6648536375035213  0.4572530705068568
  0.5620976309961713  0.7751358885840796  0.3054099491872174
  0.6686671812952886  0.6611835884532863  0.4583466548620679
  0.8943186470746942  0.7762650370546287  0.3037903452355809
  0.9607736235611961  0.0068529391487930  0.6034781825710609
  0.1193624043224376  0.2206839318084479  0.2678255135209536
  0.2341794588742703  0.1235129862794565  0.4197569864931796
  0.1080842743046747  0.2105355356441268  0.5018661897237030
  0.0098300045110720  0.0001986517184530  0.3458054050491060
  0.3086999612231027  0.0670110306422563  0.6207548900018524
  0.4517281382220538  0.2244619463619452  0.2662829722027817
  0.5655044557382607  0.1112068251039123  0.4115060273437385
  0.4709021650721868  0.2228758224531303  0.5108785997559196
  0.3400489444965665  0.0012644166370316  0.3390322542546771
  0.6208930728654538  0.9764347001537883  0.6193713774272873
  0.7883603503966989  0.2214359214203516  0.2655565912185958
  0.9008012469402084  0.1104979229786075  0.4193490258191094
  0.7801670732841025  0.2192661257691038  0.4883800665786812
  0.6804089221272439  0.0037562051665848  0.3431371320379885
  0.0323037836953083  0.3631842155144434  0.5760211611704511
  0.1172301184022740  0.5559103152676982  0.2672644638098854
  0.2220663928204964  0.4335317565336216  0.4227350706810478
  0.1048030525364900  0.5639589819217653  0.5018917451487213
  0.0084922015779523  0.3317776822901151  0.3443246489103501
  0.3121236994269835  0.3106711041275494  0.5768196463384093
  0.4504739024062356  0.5529017576193255  0.2659361994050431
  0.5539142499052676  0.4274599175965629  0.4194388309763005
  0.4470245767257395  0.5451366216067713  0.5100860437497069
  0.3403225914174166  0.3364281221157490  0.3447560140141261
  0.6283032723651747  0.2322669896158858  0.6267105294746309
  0.7863757814419723  0.5580070461161334  0.2657475934800795
  0.9000085050030862  0.4440942394549703  0.4139721803074749
  0.7903414039386017  0.5404564756255293  0.4945837951964583
  0.6769620187802412  0.3343308670526737  0.3400924861482873
  0.9624970538439558  0.6584101736956145  0.6048092965290945
  0.1169682732747017  0.8890170378356366  0.2663056634865658
  0.2291631269310491  0.7756915964599487  0.4134531344820712
  0.1100031889718506  0.8837217314177007  0.4906639225882543
  0.0060480680305582  0.6674439380207478  0.3429544918776252
  0.3022179379962410  0.7183050122019214  0.5837140237132670
  0.4562554206467500  0.8900661147281234  0.2669188606391198
  0.5694328106006901  0.7872280073411189  0.4175011943090539
  0.4651581501921154  0.9062181496959661  0.5000574563876832
  0.3414476411887696  0.6614330758480067  0.3423493763007937
  0.6187939357566005  0.7272971668444134  0.6242001142660103
  0.7862556431551571  0.8876369018358542  0.2681185589984514
  0.8941464856929849  0.7780249151798524  0.4172017956643613
  0.7869758518230731  0.8961894730677780  0.5065298819873616
  0.6681714668323845  0.6606875763700438  0.3429569912935558
  0.3019348040065428  0.5251666350862603  0.6352070046759416
  0.6133536257922080  0.4976321168331531  0.5860210971690448
  0.4691736748159364  0.4713792293711713  0.6923863974302095
  0.4528324682231406  0.5004158623383207  0.6100438079456818
  0.1276019612201673  0.1610463823365485  0.5894434895204362
  0.4708408673694031  0.1686619495082513  0.5972479837924223
  0.7947482033580954  0.5674388037759265  0.5858926071240307
  0.7824834799094671  0.8595758042997900  0.5986246621765086
  0.4649922528239042  0.8701417812754219  0.5891793350215739
  0.1740776186093227  0.5256649995523267  0.5833429183920267
 
  0.00000000E+00  0.00000000E+00  0.00000000E+00
  0.00000000E+00  0.00000000E+00  0.00000000E+00
  0.00000000E+00  0.00000000E+00  0.00000000E+00
  0.00000000E+00  0.00000000E+00  0.00000000E+00
  0.00000000E+00  0.00000000E+00  0.00000000E+00
  0.00000000E+00  0.00000000E+00  0.00000000E+00
  0.00000000E+00  0.00000000E+00  0.00000000E+00
  0.00000000E+00  0.00000000E+00  0.00000000E+00
  0.00000000E+00  0.00000000E+00  0.00000000E+00
  0.00000000E+00  0.00000000E+00  0.00000000E+00
  0.00000000E+00  0.00000000E+00  0.00000000E+00
  0.00000000E+00  0.00000000E+00  0.00000000E+00
  0.00000000E+00  0.00000000E+00  0.00000000E+00
  0.00000000E+00  0.00000000E+00  0.00000000E+00
  0.00000000E+00  0.00000000E+00  0.00000000E+00
  0.00000000E+00  0.00000000E+00  0.00000000E+00
  0.00000000E+00  0.00000000E+00  0.00000000E+00
  0.00000000E+00  0.00000000E+00  0.00000000E+00
  0.00000000E+00  0.00000000E+00  0.00000000E+00
  0.00000000E+00  0.00000000E+00  0.00000000E+00
  0.00000000E+00  0.00000000E+00  0.00000000E+00
  0.00000000E+00  0.00000000E+00  0.00000000E+00
  0.00000000E+00  0.00000000E+00  0.00000000E+00
  0.00000000E+00  0.00000000E+00  0.00000000E+00
  0.00000000E+00  0.00000000E+00  0.00000000E+00
  0.00000000E+00  0.00000000E+00  0.00000000E+00
  0.00000000E+00  0.00000000E+00  0.00000000E+00
  0.00000000E+00  0.00000000E+00  0.00000000E+00
  0.00000000E+00  0.00000000E+00  0.00000000E+00
  0.00000000E+00  0.00000000E+00  0.00000000E+00
  0.00000000E+00  0.00000000E+00  0.00000000E+00
  0.00000000E+00  0.00000000E+00  0.00000000E+00
  0.00000000E+00  0.00000000E+00  0.00000000E+00
  0.00000000E+00  0.00000000E+00  0.00000000E+00
  0.00000000E+00  0.00000000E+00  0.00000000E+00
  0.00000000E+00  0.00000000E+00  0.00000000E+00
  0.00000000E+00  0.00000000E+00  0.00000000E+00
  0.00000000E+00  0.00000000E+00  0.00000000E+00
  0.00000000E+00  0.00000000E+00  0.00000000E+00
  0.00000000E+00  0.00000000E+00  0.00000000E+00
  0.00000000E+00  0.00000000E+00  0.00000000E+00
  0.00000000E+00  0.00000000E+00  0.00000000E+00
  0.00000000E+00  0.00000000E+00  0.00000000E+00
  0.00000000E+00  0.00000000E+00  0.00000000E+00
  0.00000000E+00  0.00000000E+00  0.00000000E+00
  0.00000000E+00  0.00000000E+00  0.00000000E+00
  0.00000000E+00  0.00000000E+00  0.00000000E+00
  0.00000000E+00  0.00000000E+00  0.00000000E+00
  0.00000000E+00  0.00000000E+00  0.00000000E+00
  0.00000000E+00  0.00000000E+00  0.00000000E+00
  0.00000000E+00  0.00000000E+00  0.00000000E+00
  0.00000000E+00  0.00000000E+00  0.00000000E+00
  0.00000000E+00  0.00000000E+00  0.00000000E+00
  0.00000000E+00  0.00000000E+00  0.00000000E+00
  0.00000000E+00  0.00000000E+00  0.00000000E+00
  0.00000000E+00  0.00000000E+00  0.00000000E+00
  0.00000000E+00  0.00000000E+00  0.00000000E+00
  0.00000000E+00  0.00000000E+00  0.00000000E+00
  0.00000000E+00  0.00000000E+00  0.00000000E+00
  0.00000000E+00  0.00000000E+00  0.00000000E+00
  0.00000000E+00  0.00000000E+00  0.00000000E+00
  0.00000000E+00  0.00000000E+00  0.00000000E+00
  0.00000000E+00  0.00000000E+00  0.00000000E+00
  0.00000000E+00  0.00000000E+00  0.00000000E+00
  0.00000000E+00  0.00000000E+00  0.00000000E+00
  0.00000000E+00  0.00000000E+00  0.00000000E+00
  0.00000000E+00  0.00000000E+00  0.00000000E+00
  0.00000000E+00  0.00000000E+00  0.00000000E+00
  0.00000000E+00  0.00000000E+00  0.00000000E+00
  0.00000000E+00  0.00000000E+00  0.00000000E+00
  0.00000000E+00  0.00000000E+00  0.00000000E+00
  0.00000000E+00  0.00000000E+00  0.00000000E+00
  0.00000000E+00  0.00000000E+00  0.00000000E+00
