1\(2)
1.0
       11.5981998444         0.0000000000         0.0000000000
       -5.7990999222        10.0443357034         0.0000000000
        0.0000000000         0.0000000000        21.0482006073
   Ce    O   Ir
   18   48    7
Direct
     0.003550000         0.996140000         0.456810000
     0.222220000         0.111110000         0.309960000
     0.325350000         0.997640000         0.460490000
     0.555560000         0.111110000         0.309960000
     0.669440000         0.005310000         0.461280000
     0.888890000         0.111110000         0.309960000
     0.994240000         0.330450000         0.461650000
     0.222220000         0.444440000         0.309960000
     0.340310000         0.343580000         0.462280000
     0.555560000         0.444440000         0.309960000
     0.670980000         0.329440000         0.456640000
     0.888890000         0.444440000         0.309960000
     0.005190000         0.676210000         0.459240000
     0.222220000         0.777780000         0.309960000
     0.333280000         0.667030000         0.458470000
     0.555560000         0.777780000         0.309960000
     0.657040000         0.659730000         0.462510000
     0.888890000         0.777780000         0.309960000
     0.010360000         0.994160000         0.586980000
     0.111110000         0.222220000         0.272470000
     0.226580000         0.118670000         0.421700000
     0.109520000         0.218100000         0.502840000
     0.000000000         0.000000000         0.347450000
     0.336790000         0.032340000         0.581780000
     0.444440000         0.222220000         0.272470000
     0.552340000         0.107480000         0.421170000
     0.448430000         0.219940000         0.498380000
     0.333330000         0.000000000         0.347450000
     0.639070000         0.974760000         0.582290000
     0.777780000         0.222220000         0.272470000
     0.891110000         0.108880000         0.422840000
     0.777100000         0.222130000         0.490450000
     0.666670000         0.000000000         0.347450000
     0.023190000         0.359520000         0.580920000
     0.111110000         0.555560000         0.272470000
     0.213000000         0.431270000         0.422160000
     0.105070000         0.559620000         0.502110000
     0.000000000         0.333330000         0.347450000
     0.310960000         0.345710000         0.590830000
     0.444440000         0.555560000         0.272470000
     0.556070000         0.444170000         0.418370000
     0.441860000         0.546150000         0.519360000
     0.333330000         0.333330000         0.347450000
     0.664790000         0.338010000         0.590040000
     0.777780000         0.555560000         0.272470000
     0.892870000         0.446790000         0.420760000
     0.782970000         0.551970000         0.498080000
     0.666670000         0.333330000         0.347450000
     0.968890000         0.662040000         0.583420000
     0.111110000         0.888890000         0.272470000
     0.220050000         0.781470000         0.420070000
     0.110060000         0.890290000         0.489370000
     0.000000000         0.666670000         0.347450000
     0.300060000         0.700330000         0.593510000
     0.444440000         0.888890000         0.272470000
     0.568800000         0.786420000         0.422500000
     0.440210000         0.894830000         0.502910000
     0.333330000         0.666670000         0.347450000
     0.657110000         0.692760000         0.587920000
     0.777780000         0.888890000         0.272470000
     0.881460000         0.773720000         0.421600000
     0.782510000         0.891050000         0.502660000
     0.666670000         0.666670000         0.347450000
     0.341340000         0.522080000         0.610200000
     0.618710000         0.483330000         0.604820000
     0.532670000         0.486760000         0.678210000
     0.493260000         0.507960000         0.599140000
     0.156740000         0.173330000         0.584720000
     0.494590000         0.183260000         0.582400000
     0.818230000         0.505540000         0.582340000
     0.831840000         0.847890000         0.585000000
     0.470300000         0.842610000         0.587000000
     0.153660000         0.530500000         0.586940000
